3
Lattice="10.0 0.0 0.0 0.0 10.0 0.0 0.0 0.0 10.0" Properties=species:S:1:pos:R:3:forces:R:3 energy=-154.33900542602 free_energy=-154.33900542602 stress="0.0064156505569751 5.9444555775931e-22 -0.0011049647338655 5.9444555775931e-22 -0.00020599402767474 -1.857033660836e-19 -0.0011049647338655 -1.857033660836e-19 -0.016979006678151" pbc="T T T"
O        4.41311144       5.00000000       4.74696924       5.91181879      -0.00000000     -23.72078716
H        4.41311144       5.00000000       5.50252479      -0.37003776       0.00000000      22.78096858
H        5.58688856       5.00000000       4.49747521      -5.54178104      -0.00000000       0.93981858
3
Lattice="10.0 0.0 0.0 0.0 10.0 0.0 0.0 0.0 10.0" Properties=species:S:1:pos:R:3:forces:R:3 energy=-156.85547469446 free_energy=-156.85547469446 stress="0.0026105016508645 8.4047578164588e-20 -0.00066841245628038 8.4047578164588e-20 -0.00019828111924625 -6.712363705835e-20 -0.00066841245628038 -6.712363705835e-20 0.00096150180617794" pbc="T T T"
O        4.50016880       5.00000000       4.64192861       2.73687413      -0.00000000       0.14092150
H        4.50016880       5.00000000       5.61970639      -0.04002526      -0.00000000      -0.80752364
H        5.49983120       5.00000000       4.38029361      -2.69684887      -0.00000000       0.66660214
3
Lattice="10.0 0.0 0.0 0.0 10.0 0.0 0.0 0.0 10.0" Properties=species:S:1:pos:R:3:forces:R:3 energy=-154.63818594397 free_energy=-154.63818594397 stress="0.0054624502049462 6.6294162450288e-20 -0.00091713173632033 6.6294162450288e-20 -0.00020780327740038 -2.0654150392735e-19 -0.00091713173632033 -2.0654150392735e-19 -0.016997882578455" pbc="T T T"
O        4.44122190       5.00000000       4.74553203       5.38030588      -0.00000000     -23.58074779
H        4.44122190       5.00000000       5.50108759      -0.41060415       0.00000000      22.76165061
H        5.55877810       5.00000000       4.49891241      -4.96970173      -0.00000000       0.81909719
3
Lattice="10.0 0.0 0.0 0.0 10.0 0.0 0.0 0.0 10.0" Properties=species:S:1:pos:R:3:forces:R:3 energy=-155.93881408015 free_energy=-155.93881408015 stress="-0.0050533650335047 -1.5164965770562e-19 0.001780995216323 -1.5164965770562e-19 -0.00021808405491193 -1.6119700593714e-19 0.001780995216323 -1.6119700593714e-19 -0.01090781485814" pbc="T T T"
O        4.58165043       5.00000000       4.70741086      -5.41833930      -0.00000000     -10.69756469
H        4.58165043       5.00000000       5.51852197      -0.53723229       0.00000000      12.83136872
H        5.41834957       5.00000000       4.48147803       5.95557159       0.00000000      -2.13380403
3
Lattice="10.0 0.0 0.0 0.0 10.0 0.0 0.0 0.0 10.0" Properties=species:S:1:pos:R:3:forces:R:3 energy=-156.16817083093 free_energy=-156.16817083093 stress="-0.0099680638624271 -1.05414905467e-19 0.0026231370094465 -1.05414905467e-19 -0.0002106100875959 8.2450753546111e-20 0.0026231370094465 8.2450753546111e-20 0.00021988067869027" pbc="T T T"
O        4.60397280       5.00000000       4.59850544     -12.05470255      -0.00000000       4.17382467
H        4.60397280       5.00000000       5.57628322      -0.44721052      -0.00000000      -0.85570884
H        5.39602720       5.00000000       4.42371678      12.50191306       0.00000000      -3.31811583
3
Lattice="10.0 0.0 0.0 0.0 10.0 0.0 0.0 0.0 10.0" Properties=species:S:1:pos:R:3:forces:R:3 energy=-153.26945205764 free_energy=-153.26945205764 stress="0.0042158523704319 1.958204812517e-20 -0.00099611480239781 1.958204812517e-20 -0.00021514901436078 -2.4149015152551e-20 -0.00099611480239781 -2.4149015152551e-20 -0.025918550390814" pbc="T T T"
O        4.47664641       5.00000000       4.80006923       4.46623984       0.00000000     -38.39208981
H        4.47664641       5.00000000       5.50006923      -0.34662789      -0.00000000      37.44172935
H        5.52335359       5.00000000       4.49993077      -4.11961195      -0.00000000       0.95036046
3
Lattice="10.0 0.0 0.0 0.0 10.0 0.0 0.0 0.0 10.0" Properties=species:S:1:pos:R:3:forces:R:3 energy=-156.63114834487 free_energy=-156.63114834487 stress="-0.0018523111563648 -1.0847469556941e-19 0.00047287567154222 -1.0847469556941e-19 -0.00019983168296965 -1.4813615115862e-19 0.00047287567154222 -1.4813615115862e-19 0.0043657298096568" pbc="T T T"
O        4.55675155       5.00000000       4.58265500      -2.03930960      -0.00000000       4.67774679
H        4.55675155       5.00000000       5.67154389       0.03257781       0.00000000      -4.14006960
H        5.44324845       5.00000000       4.32845611       2.00673179       0.00000000      -0.53767719
3
Lattice="10.0 0.0 0.0 0.0 10.0 0.0 0.0 0.0 10.0" Properties=species:S:1:pos:R:3:forces:R:3 energy=-155.57922931435 free_energy=-155.57922931435 stress="0.0062544264865631 2.9687364125709e-20 -0.0014783818813304 2.9687364125709e-20 -0.00018434532355571 -2.6745881724673e-19 -0.0014783818813304 -2.6745881724673e-19 0.0059616396609922" pbc="T T T"
O        4.41409675       5.00000000       4.55707350       5.33486713      -0.00000000       3.66191754
H        4.41409675       5.00000000       5.70151794       0.06830412       0.00000000      -4.92156624
H        5.58590325       5.00000000       4.29848206      -5.40317125       0.00000000       1.25964871
3
Lattice="10.0 0.0 0.0 0.0 10.0 0.0 0.0 0.0 10.0" Properties=species:S:1:pos:R:3:forces:R:3 energy=-155.8776145704 free_energy=-155.8776145704 stress="-0.0098231395196398 -1.3749213816799e-19 0.0027252778309644 -1.3749213816799e-19 -0.00020642578492286 -1.1237174089325e-19 0.0027252778309644 -1.1237174089325e-19 0.0037944624870709" pbc="T T T"
O        4.60765938       5.00000000       4.55824026     -12.27798692      -0.00000000       7.64298823
H        4.60765938       5.00000000       5.64712915      -0.15764318       0.00000000      -4.16324390
H        5.39234062       5.00000000       4.35287085      12.43563010       0.00000000      -3.47974434
3
Lattice="10.0 0.0 0.0 0.0 10.0 0.0 0.0 0.0 10.0" Properties=species:S:1:pos:R:3:forces:R:3 energy=-153.47081551919 free_energy=-153.47081551919 stress="-0.02420412313761 -1.4576709917935e-19 0.0072274666379334 -1.4576709917935e-19 -0.00021745971760274 -3.902943309621e-20 0.0072274666379334 -3.902943309621e-20 0.00089808225587143" pbc="T T T"
O        4.66355841       5.00000000       4.57980641     -35.55845278      -0.00000000      13.65734945
H        4.66355841       5.00000000       5.61313974      -0.29862063       0.00000000      -2.90992703
H        5.33644159       5.00000000       4.38686026      35.85707341       0.00000000     -10.74742242
3
Lattice="10.0 0.0 0.0 0.0 10.0 0.0 0.0 0.0 10.0" Properties=species:S:1:pos:R:3:forces:R:3 energy=-156.81892713747 free_energy=-156.81892713747 stress="0.0026848487383174 6.797969143982e-20 -0.00037623770027351 6.797969143982e-20 -0.00020031047988744 1.7092735907969e-19 -0.00037623770027351 1.7092735907969e-19 -0.0018892142095329" pbc="T T T"
O        4.49547220       5.00000000       4.65022687       3.00256631       0.00000000      -2.49509010
H        4.49547220       5.00000000       5.57244909      -0.25613720      -0.00000000       2.12434781
H        5.50452780       5.00000000       4.42755091      -2.74642911      -0.00000000       0.37074229
3
Lattice="10.0 0.0 0.0 0.0 10.0 0.0 0.0 0.0 10.0" Properties=species:S:1:pos:R:3:forces:R:3 energy=-153.55656250474 free_energy=-153.55656250474 stress="-0.024272556873523 -1.8134073919279e-19 0.0072279552533971 -1.8134073919279e-19 -0.00022334498460261 1.3080584641226e-19 0.0072279552533971 1.3080584641226e-19 -0.0038519408997262" pbc="T T T"
O        4.66282019       5.00000000       4.63274930     -35.33999186       0.00000000       8.77294158
H        4.66282019       5.00000000       5.55497153      -0.53432548      -0.00000000       1.95105982
H        5.33717981       5.00000000       4.44502847      35.87431734       0.00000000     -10.72400140
3
Lattice="10.0 0.0 0.0 0.0 10.0 0.0 0.0 0.0 10.0" Properties=species:S:1:pos:R:3:forces:R:3 energy=-153.24912329562 free_energy=-153.24912329562 stress="-0.025022098086949 -1.7443194868836e-19 0.0059415067325201 -1.7443194868836e-19 -0.00021416638584326 -1.329013819502e-19 0.0059415067325201 -1.329013819502e-19 0.0031543241411873" pbc="T T T"
O        4.65822311       5.00000000       4.53097806     -36.09885655      -0.00000000      12.84598520
H        4.65822311       5.00000000       5.61986695      -0.39961005       0.00000000      -4.14708603
H        5.34177689       5.00000000       4.38013305      36.49846660       0.00000000      -8.69889917
3
Lattice="10.0 0.0 0.0 0.0 10.0 0.0 0.0 0.0 10.0" Properties=species:S:1:pos:R:3:forces:R:3 energy=-156.92604442843 free_energy=-156.92604442843 stress="0.00074589472155767 1.63919667148e-19 4.5439785067727e-05 1.63919667148e-19 -0.00020328199428401 1.0464197786448e-19 4.5439785067727e-05 1.0464197786448e-19 -0.0019460659352932" pbc="T T T"
O        4.52428917       5.00000000       4.65163443       1.13156117       0.00000000      -2.03178409
H        4.52428917       5.00000000       5.57385665      -0.26258378      -0.00000000       2.08254468
H        5.47571083       5.00000000       4.42614335      -0.86897739      -0.00000000      -0.05076059
3
Lattice="10.0 0.0 0.0 0.0 10.0 0.0 0.0 0.0 10.0" Properties=species:S:1:pos:R:3:forces:R:3 energy=-154.94402342985 free_energy=-154.94402342985 stress="-0.016295129137232 -1.2521213767185e-19 0.0042632630126321 -1.2521213767185e-19 -0.0002224143726051 7.2225298963788e-20 0.0042632630126321 7.2225298963788e-20 -0.0065151478562105" pbc="T T T"
O        4.63109795       5.00000000       4.64807508     -21.20070762      -0.00000000      -0.59689948
H        4.63109795       5.00000000       5.51474175      -0.78726541      -0.00000000       6.38135461
H        5.36890205       5.00000000       4.48525825      21.98797303       0.00000000      -5.78445513
3
Lattice="10.0 0.0 0.0 0.0 10.0 0.0 0.0 0.0 10.0" Properties=species:S:1:pos:R:3:forces:R:3 energy=-155.17379881195 free_energy=-155.17379881195 stress="-0.0017233884842795 -2.0705813993892e-19 0.00094351084075378 -2.0705813993892e-19 -0.00021839820191976 -1.3422120267341e-19 0.00094351084075378 -1.3422120267341e-19 -0.01738403538537" pbc="T T T"
O        4.55050683       5.00000000       4.72507817      -1.08053170      -0.00000000     -21.65243567
H        4.55050683       5.00000000       5.48063372      -0.75103297       0.00000000      22.70601748
H        5.44949317       5.00000000       4.51936628       1.83156468       0.00000000      -1.05358181
3
Lattice="10.0 0.0 0.0 0.0 10.0 0.0 0.0 0.0 10.0" Properties=species:S:1:pos:R:3:forces:R:3 energy=-155.41558177681 free_energy=-155.41558177681 stress="-0.0096788299117457 -1.4664152602522e-19 0.0030649732262151 -1.4664152602522e-19 -0.0002222706266318 -2.2217171370545e-19 0.0030649732262151 -2.2217171370545e-19 -0.011241714201367" pbc="T T T"
O        4.60765938       5.00000000       4.69712915     -11.56742209      -0.00000000      -8.92769125
H        4.60765938       5.00000000       5.50824026      -0.67809442       0.00000000      12.83953037
H        5.39234062       5.00000000       4.49175974      12.24551651       0.00000000      -3.91183912
3
Lattice="10.0 0.0 0.0 0.0 10.0 0.0 0.0 0.0 10.0" Properties=species:S:1:pos:R:3:forces:R:3 energy=-153.44526979013 free_energy=-153.44526979013 stress="-0.025004854832335 -2.0449576679343e-19 0.0060094547632146 -2.0449576679343e-19 -0.00021658226029144 -6.4103777154968e-21 0.0060094547632146 -6.4103777154968e-21 0.001544135984249" pbc="T T T"
O        4.65822311       5.00000000       4.55875584     -35.98020652      -0.00000000      11.62577629
H        4.65822311       5.00000000       5.59208917      -0.49071329      -0.00000000      -2.82779546
H        5.34177689       5.00000000       4.40791083      36.47091982       0.00000000      -8.79798083
3
Lattice="10.0 0.0 0.0 0.0 10.0 0.0 0.0 0.0 10.0" Properties=species:S:1:pos:R:3:forces:R:3 energy=-152.69403722164 free_energy=-152.69403722164 stress="0.0064182336625706 -1.0379829113505e-20 -0.0011257037275399 -1.0379829113505e-20 -0.00021042660340708 2.822770841539e-20 -0.0011257037275399 2.822770841539e-20 -0.026016421692479" pbc="T T T"
O        4.41409675       5.00000000       4.77929572       6.00325354      -0.00000000     -38.48888095
H        4.41409675       5.00000000       5.47929572      -0.44784349      -0.00000000      37.52965265
H        5.58590325       5.00000000       4.52070428      -5.55541005       0.00000000       0.95922830
3
Lattice="10.0 0.0 0.0 0.0 10.0 0.0 0.0 0.0 10.0" Properties=species:S:1:pos:R:3:forces:R:3 energy=-153.32596928292 free_energy=-153.32596928292 stress="-0.024474199994215 -2.087289103159e-19 0.0070206245439605 -2.087289103159e-19 -0.00022726023423204 6.699639540295e-20 0.0070206245439605 6.699639540295e-20 -0.0073646616965318" pbc="T T T"
O        4.66140467       5.00000000       4.65528498     -35.28530006      -0.00000000       4.04375954
H        4.66140467       5.00000000       5.52195164      -0.73358177      -0.00000000       6.32901215
H        5.33859533       5.00000000       4.47804836      36.01888183       0.00000000     -10.37277169
3
Lattice="10.0 0.0 0.0 0.0 10.0 0.0 0.0 0.0 10.0" Properties=species:S:1:pos:R:3:forces:R:3 energy=-155.20373561046 free_energy=-155.20373561046 stress="0.00084544282466384 1.7078948233693e-19 0.00023895386721122 1.7078948233693e-19 -0.00021510502389314 -1.7174076282771e-19 0.00023895386721122 -1.7174076282771e-19 -0.01721827357619" pbc="T T T"
O        4.52428917       5.00000000       4.73496776       1.58635644       0.00000000     -22.44881326
H        4.52428917       5.00000000       5.49052331      -0.60929341       0.00000000      22.70292968
H        5.47571083       5.00000000       4.50947669      -0.97706302      -0.00000000      -0.25411642
3
Lattice="10.0 0.0 0.0 0.0 10.0 0.0 0.0 0.0 10.0" Properties=species:S:1:pos:R:3:forces:R:3 energy=-155.57856029781 free_energy=-155.57856029781 stress="0.0052562034600061 1.4204628119724e-20 -0.0013281020167917 1.4204628119724e-20 -0.00018461108880779 -9.833065932467e-21 -0.0013281020167917 -9.833065932467e-21 0.0069671212376953" pbc="T T T"
O        4.44219522       5.00000000       4.52764051       4.69484781       0.00000000       4.36233629
H        4.44219522       5.00000000       5.72764051       0.08703757      -0.00000000      -5.55076352
H        5.55780478       5.00000000       4.27235949      -4.78188538      -0.00000000       1.18842723
3
Lattice="10.0 0.0 0.0 0.0 10.0 0.0 0.0 0.0 10.0" Properties=species:S:1:pos:R:3:forces:R:3 energy=-155.617725116 free_energy=-155.617725116 stress="-0.0099323505318631 -1.8409630972074e-19 0.002586298422741 -1.8409630972074e-19 -0.0002042078819654 -1.2097251341483e-19 0.002586298422741 -1.2097251341483e-19 0.005103545665538" pbc="T T T"
O        4.60611361       5.00000000       4.52436358     -12.38001637      -0.00000000       8.32767964
H        4.60611361       5.00000000       5.66880803      -0.14577936       0.00000000      -5.03787457
H        5.39388639       5.00000000       4.33119197      12.52579574       0.00000000      -3.28980507
3
Lattice="10.0 0.0 0.0 0.0 10.0 0.0 0.0 0.0 10.0" Properties=species:S:1:pos:R:3:forces:R:3 energy=-153.26748627403 free_energy=-153.26748627403 stress="0.0042299093708571 -1.4627721670031e-20 -0.00094032430455433 -1.4627721670031e-20 -0.00021499239427211 2.760049586597e-20 -0.00094032430455433 2.760049586597e-20 -0.025948782068764" pbc="T T T"
O        4.47549808       5.00000000       4.79600509       4.50437779       0.00000000     -38.34658766
H        4.47549808       5.00000000       5.49600509      -0.38039508      -0.00000000      37.45151892
H        5.52450192       5.00000000       4.50399491      -4.12398271      -0.00000000       0.89506874
3
Lattice="10.0 0.0 0.0 0.0 10.0 0.0 0.0 0.0 10.0" Properties=species:S:1:pos:R:3:forces:R:3 energy=-156.06789535947 free_energy=-156.06789535947 stress="0.0027435033479464 -4.730274079826e-20 -0.00035687300770679 -4.730274079826e-20 -0.0002080785569311 -1.6024182277052e-19 -0.00035687300770679 -1.6024182277052e-19 -0.010408676212198" pbc="T T T"
O        4.49726015       5.00000000       4.71359598       3.20648562      -0.00000000     -13.27682370
H        4.49726015       5.00000000       5.52470709      -0.38901174       0.00000000      12.92394777
H        5.50273985       5.00000000       4.47529291      -2.81747388       0.00000000       0.35287592
3
Lattice="10.0 0.0 0.0 0.0 10.0 0.0 0.0 0.0 10.0" Properties=species:S:1:pos:R:3:forces:R:3 energy=-154.64845767431 free_energy=-154.64845767431 stress="-0.016081638576354 -1.6864027312645e-19 0.0043738951665093 -1.6864027312645e-19 -0.0002087541216994 -1.5959075829181e-19 0.0043738951665093 -1.5959075829181e-19 0.0046250094230949" pbc="T T T"
O        4.63453203       5.00000000       4.52342929     -21.75115908      -0.00000000      11.06032469
H        4.63453203       5.00000000       5.66787373      -0.15932771       0.00000000      -5.06899668
H        5.36546797       5.00000000       4.33212627      21.91048680       0.00000000      -5.99132801
3
Lattice="10.0 0.0 0.0 0.0 10.0 0.0 0.0 0.0 10.0" Properties=species:S:1:pos:R:3:forces:R:3 energy=-153.53481831506 free_energy=-153.53481831506 stress="-0.024787708319418 -1.0138360310016e-19 0.0064774356191103 -1.0138360310016e-19 -0.00022311056631789 1.4835700510515e-19 0.0064774356191103 1.4835700510515e-19 -0.0034418737504417" pbc="T T T"
O        4.65943430       5.00000000       4.61960444     -35.60276395       0.00000000       7.50254612
H        4.65943430       5.00000000       5.54182667      -0.67256958      -0.00000000       2.01312180
H        5.34056570       5.00000000       4.45817333      36.27533353       0.00000000      -9.51566792
3
Lattice="10.0 0.0 0.0 0.0 10.0 0.0 0.0 0.0 10.0" Properties=species:S:1:pos:R:3:forces:R:3 energy=-156.40865466286 free_energy=-156.40865466286 stress="0.00061080406514957 9.5288358423955e-20 -0.00017547498049957 9.5288358423955e-20 -0.00019377939113921 -1.7384509347145e-19 -0.00017547498049957 -1.7384509347145e-19 0.0057369592065304" pbc="T T T"
O        4.52517805       5.00000000       4.54420998       0.72353965      -0.00000000       4.80096926
H        4.52517805       5.00000000       5.68865443       0.00388191       0.00000000      -4.98286133
H        5.47482195       5.00000000       4.31134557      -0.72742156      -0.00000000       0.18189207
3
Lattice="10.0 0.0 0.0 0.0 10.0 0.0 0.0 0.0 10.0" Properties=species:S:1:pos:R:3:forces:R:3 energy=-156.07775637833 free_energy=-156.07775637833 stress="-0.0019799310964709 -2.0408328071192e-20 0.00051469461250014 -2.0408328071192e-20 -0.00019431473066539 -4.7101537320428e-21 0.00051469461250014 -4.7101537320428e-21 0.006564284732762" pbc="T T T"
O        4.54896527       5.00000000       4.49587039      -2.02066999      -0.00000000       6.15380272
H        4.54896527       5.00000000       5.69587039      -0.09190231       0.00000000      -5.57909578
H        5.45103473       5.00000000       4.30412961       2.11257230       0.00000000      -0.57470694
3
Lattice="10.0 0.0 0.0 0.0 10.0 0.0 0.0 0.0 10.0" Properties=species:S:1:pos:R:3:forces:R:3 energy=-152.78024998495 free_energy=-152.78024998495 stress="-0.0098574676349073 -1.9889926340248e-19 0.0030801586832834 -1.9889926340248e-19 -0.0002321179716757 1.0086668547359e-19 0.0030801586832834 1.0086668547359e-19 -0.027001942373915" pbc="T T T"
O        4.60466263       5.00000000       4.74046366     -11.17101157      -0.00000000     -33.64949398
H        4.60466263       5.00000000       5.44046366      -1.20303045      -0.00000000      37.55050626
H        5.39533737       5.00000000       4.55953634      12.37404202       0.00000000      -3.90101229
3
Lattice="10.0 0.0 0.0 0.0 10.0 0.0 0.0 0.0 10.0" Properties=species:S:1:pos:R:3:forces:R:3 energy=-155.57367136199 free_energy=-155.57367136199 stress="0.0051637062951053 5.7656400845251e-20 -0.0015838697885724 5.7656400845251e-20 -0.00018570002521591 -5.3148872667721e-20 -0.0015838697885724 -5.3148872667721e-20 0.0070995759795846" pbc="T T T"
O        4.44642351       5.00000000       4.54488390       4.56188963      -0.00000000       4.13692107
H        4.44642351       5.00000000       5.74488390       0.17357537      -0.00000000      -5.56559394
H        5.55357649       5.00000000       4.25511610      -4.73546501      -0.00000000       1.42867287
3
Lattice="10.0 0.0 0.0 0.0 10.0 0.0 0.0 0.0 10.0" Properties=species:S:1:pos:R:3:forces:R:3 energy=-156.30923948714 free_energy=-156.30923948714 stress="0.0025730520582907 1.6049298431917e-20 -0.00050823600924424 1.6049298431917e-20 -0.00019018477608082 -1.0714484860201e-19 -0.00050823600924424 -1.0714484860201e-19 0.0057548380642981" pbc="T T T"
O        4.49462374       5.00000000       4.53519882       2.67810377      -0.00000000       4.44306933
H        4.49462374       5.00000000       5.67964326      -0.05041014       0.00000000      -4.94369631
H        5.50537626       5.00000000       4.32035674      -2.62769364      -0.00000000       0.50062698
3
Lattice="10.0 0.0 0.0 0.0 10.0 0.0 0.0 0.0 10.0" Properties=species:S:1:pos:R:3:forces:R:3 energy=-154.43759608583 free_energy=-154.43759608583 stress="-0.016086668268137 -1.6540162670409e-19 0.0046222005720229 -1.6540162670409e-19 -0.00022699358355895 -2.6011065736654e-19 0.0046222005720229 -2.6011065736654e-19 -0.011608660231903" pbc="T T T"
O        4.63309213       5.00000000       4.68441479     -20.96248549      -0.00000000      -6.57107920
H        4.63309213       5.00000000       5.49552590      -0.85739661       0.00000000      12.87581397
H        5.36690787       5.00000000       4.50447410      21.81988210       0.00000000      -6.30473476
3
Lattice="10.0 0.0 0.0 0.0 10.0 0.0 0.0 0.0 10.0" Properties=species:S:1:pos:R:3:forces:R:3 energy=-155.21702719971 free_energy=-155.21702719971 stress="-0.0159346619344 -1.2181141855638e-19 0.0046394722079161 -1.2181141855638e-19 -0.00021559032595492 4.1966286421448e-20 0.0046394722079161 4.1966286421448e-20 -0.00037353251418488" pbc="T T T"
O        4.63528499       5.00000000       4.60959465     -21.38691145      -0.00000000       7.30050423
H        4.63528499       5.00000000       5.58737243      -0.36312167      -0.00000000      -0.93349097
H        5.36471501       5.00000000       4.41262757      21.75003312       0.00000000      -6.36701326
3
Lattice="10.0 0.0 0.0 0.0 10.0 0.0 0.0 0.0 10.0" Properties=species:S:1:pos:R:3:forces:R:3 energy=-155.57764247757 free_energy=-155.57764247757 stress="0.0052345939832175 8.6917945501702e-20 -0.0013929986683487 8.6917945501702e-20 -0.00018487399821179 -3.0725308850081e-20 -0.0013929986683487 -3.0725308850081e-20 0.0069992728556192" pbc="T T T"
O        4.44320210       5.00000000       4.53196353       4.66239734       0.00000000       4.30568587
H        4.44320210       5.00000000       5.73196353       0.10887258      -0.00000000      -5.55457715
H        5.55679790       5.00000000       4.26803647      -4.77126992      -0.00000000       1.24889128
3
Lattice="10.0 0.0 0.0 0.0 10.0 0.0 0.0 0.0 10.0" Properties=species:S:1:pos:R:3:forces:R:3 energy=-153.45282091376 free_energy=-153.45282091376 stress="-0.024819627931019 -1.2500426012621e-19 0.0063215316474483 -1.2500426012621e-19 -0.00021676147744699 -1.2413197774919e-19 0.0063215316474483 -1.2413197774919e-19 0.0013982031768217" pbc="T T T"
O        4.65943430       5.00000000       4.56404889     -35.88680413      -0.00000000      12.13610773
H        4.65943430       5.00000000       5.59738222      -0.44142373       0.00000000      -2.84871051
H        5.34056570       5.00000000       4.40261778      36.32822785       0.00000000      -9.28739722
3
Lattice="10.0 0.0 0.0 0.0 10.0 0.0 0.0 0.0 10.0" Properties=species:S:1:pos:R:3:forces:R:3 energy=-154.94902837395 free_energy=-154.94902837395 stress="-0.0051711341978771 -1.2986122689363e-19 0.001821523458071 -1.2986122689363e-19 -0.00022239825895073 -1.3340025747431e-19 0.001821523458071 -1.3340025747431e-19 -0.017589066900604" pbc="T T T"
O        4.57758473       5.00000000       4.71888202      -5.16868916      -0.00000000     -20.54573568
H        4.57758473       5.00000000       5.47443758      -0.86709441       0.00000000      22.70684432
H        5.42241527       5.00000000       4.52556242       6.03578357       0.00000000      -2.16110864
3
Lattice="10.0 0.0 0.0 0.0 10.0 0.0 0.0 0.0 10.0" Properties=species:S:1:pos:R:3:forces:R:3 energy=-156.0163182681 free_energy=-156.0163182681 stress="0.0062833696123404 -6.8538979852071e-20 -0.0014140891657725 -6.8538979852071e-20 -0.00018870547204882 -5.9945457178338e-20 -0.0014140891657725 -5.9945457178338e-20 0.0030701786208208" pbc="T T T"
O        4.41409675       5.00000000       4.61262905       5.42263615      -0.00000000       1.46315665
H        4.41409675       5.00000000       5.64596239       0.00712477       0.00000000      -2.66805402
H        5.58590325       5.00000000       4.35403761      -5.42976092       0.00000000       1.20489737
3
Lattice="10.0 0.0 0.0 0.0 10.0 0.0 0.0 0.0 10.0" Properties=species:S:1:pos:R:3:forces:R:3 energy=-154.64690656211 free_energy=-154.64690656211 stress="-0.01614784219962 -1.2386414816557e-19 0.0042829599474644 -1.2386414816557e-19 -0.00020856811788662 -1.2916039228052e-19 0.0042829599474644 -1.2916039228052e-19 0.0046736256596581" pbc="T T T"
O        4.63380106       5.00000000       4.52059149     -21.77650390      -0.00000000      10.91637650
H        4.63380106       5.00000000       5.66503594      -0.18082645       0.00000000      -5.06115908
H        5.36619894       5.00000000       4.33496406      21.95733035       0.00000000      -5.85521742
3
Lattice="10.0 0.0 0.0 0.0 10.0 0.0 0.0 0.0 10.0" Properties=species:S:1:pos:R:3:forces:R:3 energy=-156.37514218097 free_energy=-156.37514218097 stress="0.0053259114830313 1.2521328955227e-21 -0.0012801902180312 1.2521328955227e-21 -0.00019679313729868 9.4755971781639e-20 -0.0012801902180312 9.4755971781639e-20 -0.0016609056261749" pbc="T T T"
O        4.44424249       5.00000000       4.67516749       4.92114053       0.00000000      -3.29203504
H        4.44424249       5.00000000       5.59738972      -0.05309949      -0.00000000       2.14196350
H        5.55575751       5.00000000       4.40261028      -4.86804104      -0.00000000       1.15007153
3
Lattice="10.0 0.0 0.0 0.0 10.0 0.0 0.0 0.0 10.0" Properties=species:S:1:pos:R:3:forces:R:3 energy=-153.46116062168 free_energy=-153.46116062168 stress="-0.016157413508574 -1.943222370403e-19 0.0046327077660277 -1.943222370403e-19 -0.00023208811245637 -1.9934041074954e-19 0.0046327077660277 -1.9934041074954e-19 -0.018300724447995" pbc="T T T"
O        4.63240527       5.00000000       4.70934377     -20.78445161      -0.00000000     -16.43081228
H        4.63240527       5.00000000       5.46489933      -1.08760159       0.00000000      22.73782432
H        5.36759473       5.00000000       4.53510067      21.87205320       0.00000000      -6.30701204
3
Lattice="10.0 0.0 0.0 0.0 10.0 0.0 0.0 0.0 10.0" Properties=species:S:1:pos:R:3:forces:R:3 energy=-156.62509228657 free_energy=-156.62509228657 stress="-0.0019302479613725 -8.4038242959951e-20 0.00060063843347361 -8.4038242959951e-20 -0.00019789491687352 -1.319940139521e-19 0.00060063843347361 -1.319940139521e-19 0.0042849209787851" pbc="T T T"
O        4.54896527       5.00000000       4.55142595      -1.86895643      -0.00000000       4.74428261
H        4.54896527       5.00000000       5.64031484      -0.18941443       0.00000000      -4.07424566
H        5.45103473       5.00000000       4.35968516       2.05837086       0.00000000      -0.67003695
3
Lattice="10.0 0.0 0.0 0.0 10.0 0.0 0.0 0.0 10.0" Properties=species:S:1:pos:R:3:forces:R:3 energy=-155.9098388513 free_energy=-155.9098388513 stress="-0.0052410671273202 6.2947789866453e-20 0.0017244341542412 6.2947789866453e-20 -0.00021768030327603 -1.7968113216263e-19 0.0017244341542412 -1.7968113216263e-19 -0.010868635604513" pbc="T T T"
O        4.57613604       5.00000000       4.68453951      -5.32841594      -0.00000000     -10.87426401
H        4.57613604       5.00000000       5.49565062      -0.77076806       0.00000000      12.91358393
H        5.42386396       5.00000000       4.50434938       6.09918400      -0.00000000      -2.03931992
3
Lattice="10.0 0.0 0.0 0.0 10.0 0.0 0.0 0.0 10.0" Properties=species:S:1:pos:R:3:forces:R:3 energy=-155.09008504736 free_energy=-155.09008504736 stress="0.0027799984170086 1.0520191510534e-20 -0.00019520177125475 1.0520191510534e-20 -0.00021210423238603 -2.0236621867756e-19 -0.00019520177125475 -2.0236621867756e-19 -0.017141905163727" pbc="T T T"
O        4.49547220       5.00000000       4.73356020       3.42735202      -0.00000000     -22.92662686
H        4.49547220       5.00000000       5.48911576      -0.58183598       0.00000000      22.73522637
H        5.50452780       5.00000000       4.51088424      -2.84551604       0.00000000       0.19140049
3
Lattice="10.0 0.0 0.0 0.0 10.0 0.0 0.0 0.0 10.0" Properties=species:S:1:pos:R:3:forces:R:3 energy=-156.92783043244 free_energy=-156.92783043244 stress="0.00074680691278174 1.9565142625796e-19 1.0810500358244e-05 1.9565142625796e-19 -0.00020344969498605 7.3878569294958e-20 1.0810500358244e-05 7.3878569294958e-20 -0.0019273395506182" pbc="T T T"
O        4.52517805       5.00000000       4.65532109       1.10431917       0.00000000      -2.05882383
H        4.52517805       5.00000000       5.57754332      -0.23282018      -0.00000000       2.07320648
H        5.47482195       5.00000000       4.42245668      -0.87149899      -0.00000000      -0.01438265
3
Lattice="10.0 0.0 0.0 0.0 10.0 0.0 0.0 0.0 10.0" Properties=species:S:1:pos:R:3:forces:R:3 energy=-156.59797998943 free_energy=-156.59797998943 stress="0.0026880497069437 1.4062268185287e-20 -0.00056237070057039 1.4062268185287e-20 -0.00020467908998663 5.3432590822059e-20 -0.00056237070057039 5.3432590822059e-20 -0.0054039781886444" pbc="T T T"
O        4.50016880       5.00000000       4.69748417       2.96796934       0.00000000      -6.96037737
H        4.50016880       5.00000000       5.56415084      -0.19125445      -0.00000000       6.39984540
H        5.49983120       5.00000000       4.43584916      -2.77671489       0.00000000       0.56053198
3
Lattice="10.0 0.0 0.0 0.0 10.0 0.0 0.0 0.0 10.0" Properties=species:S:1:pos:R:3:forces:R:3 energy=-153.54411237938 free_energy=-153.54411237938 stress="-0.024588947104048 -1.1980955673613e-19 0.0067815137050573 -1.1980955673613e-19 -0.00022318343895591 9.7232662374434e-20 0.0067815137050573 9.7232662374434e-20 -0.0035982524305022" pbc="T T T"
O        4.66072745       5.00000000       4.62487807     -35.50371724      -0.00000000       8.01186420
H        4.66072745       5.00000000       5.54710029      -0.61646041      -0.00000000       1.98814631
H        5.33927255       5.00000000       4.45289971      36.12017765       0.00000000     -10.00001051
3
Lattice="10.0 0.0 0.0 0.0 10.0 0.0 0.0 0.0 10.0" Properties=species:S:1:pos:R:3:forces:R:3 energy=-152.99514718738 free_energy=-152.99514718738 stress="-0.024948905064083 -2.0885119458332e-19 0.0060384467831723 -2.0885119458332e-19 -0.0002123236408516 -1.1569626552427e-19 0.0060384467831723 -1.1569626552427e-19 0.0043478926224884" pbc="T T T"
O        4.65881844       5.00000000       4.50584916     -36.15477559      -0.00000000      13.90356965
H        4.65881844       5.00000000       5.65029360      -0.30182792       0.00000000      -5.04711050
H        5.34118156       5.00000000       4.34970640      36.45660351       0.00000000      -8.85645916
3
Lattice="10.0 0.0 0.0 0.0 10.0 0.0 0.0 0.0 10.0" Properties=species:S:1:pos:R:3:forces:R:3 energy=-156.59115444125 free_energy=-156.59115444125 stress="0.0027143072744479 -6.6406254817969e-20 -0.00036871751113227 -6.6406254817969e-20 -0.00020399360979726 8.4948444951788e-20 -0.00036871751113227 8.4948444951788e-20 -0.0055071384258823" pbc="T T T"
O        4.49635102       5.00000000       4.68191489       3.09733009       0.00000000      -6.80182847
H        4.49635102       5.00000000       5.54858156      -0.31547660      -0.00000000       6.43786909
H        5.50364898       5.00000000       4.45141844      -2.78185349       0.00000000       0.36395938
3
Lattice="10.0 0.0 0.0 0.0 10.0 0.0 0.0 0.0 10.0" Properties=species:S:1:pos:R:3:forces:R:3 energy=-155.92765732233 free_energy=-155.92765732233 stress="-0.0051348094684154 -1.7456797263435e-20 0.0017572197034548 -1.7456797263435e-20 -0.00021786735973764 -2.0060958428821e-19 0.0017572197034548 -2.0060958428821e-19 -0.010890138102444" pbc="T T T"
O        4.57913509       5.00000000       4.69764572      -5.38119439      -0.00000000     -10.77401599
H        4.57913509       5.00000000       5.50875683      -0.63540897       0.00000000      12.86681632
H        5.42086491       5.00000000       4.49124317       6.01660337       0.00000000      -2.09280033
3
Lattice="10.0 0.0 0.0 0.0 10.0 0.0 0.0 0.0 10.0" Properties=species:S:1:pos:R:3:forces:R:3 energy=-153.2637958217 free_energy=-153.2637958217 stress="-0.024543598063082 -2.4111815860957e-19 0.0067166361167311 -2.4111815860957e-19 -0.00021480835091964 -1.0812404204476e-19 0.0067166361167311 -1.0812404204476e-19 0.0027689361110531" pbc="T T T"
O        4.66140467       5.00000000       4.54417386     -35.84711917      -0.00000000      14.11908898
H        4.66140467       5.00000000       5.63306275      -0.28643525       0.00000000      -4.19394178
H        5.33859533       5.00000000       4.36693725      36.13355442       0.00000000      -9.92514720
3
Lattice="10.0 0.0 0.0 0.0 10.0 0.0 0.0 0.0 10.0" Properties=species:S:1:pos:R:3:forces:R:3 energy=-153.55166352196 free_energy=-153.55166352196 stress="-0.024988938860472 -1.3051009596505e-19 0.0060848192135815 -1.3051009596505e-19 -0.0002195197048497 4.73302568027e-20 0.0060848192135815 4.73302568027e-20 -0.00054251793305783" pbc="T T T"
O        4.65822311       5.00000000       4.58653362     -35.84535078      -0.00000000       9.78094112
H        4.65822311       5.00000000       5.56431139      -0.59952118      -0.00000000      -0.87301633
H        5.34177689       5.00000000       4.43568861      36.44487196       0.00000000      -8.90792479
3
Lattice="10.0 0.0 0.0 0.0 10.0 0.0 0.0 0.0 10.0" Properties=species:S:1:pos:R:3:forces:R:3 energy=-153.46558128085 free_energy=-153.46558128085 stress="-0.024419110339226 -5.5933852904161e-20 0.0069308285998082 -5.5933852904161e-20 -0.00021720078837823 -7.4378104792132e-20 0.0069308285998082 -7.4378104792132e-20 0.0010750080693757" pbc="T T T"
O        4.66210227       5.00000000       4.57457544     -35.67593809      -0.00000000      13.15198111
H        4.66210227       5.00000000       5.60790877      -0.34537361       0.00000000      -2.88975995
H        5.33789773       5.00000000       4.39209123      36.02131170       0.00000000     -10.26222116
3
Lattice="10.0 0.0 0.0 0.0 10.0 0.0 0.0 0.0 10.0" Properties=species:S:1:pos:R:3:forces:R:3 energy=-156.40818118647 free_energy=-156.40818118647 stress="0.0053343588565769 3.0999132162313e-20 -0.001191895519332 3.0999132162313e-20 -0.00019329087581874 -2.2951654945425e-20 -0.001191895519332 -2.2951654945425e-20 0.00098976447011515" pbc="T T T"
O        4.44219522       5.00000000       4.63875162       4.90704396       0.00000000      -0.33183037
H        4.44219522       5.00000000       5.61652940      -0.05108912      -0.00000000      -0.73473884
H        5.55780478       5.00000000       4.38347060      -4.85595484      -0.00000000       1.06656921
3
Lattice="10.0 0.0 0.0 0.0 10.0 0.0 0.0 0.0 10.0" Properties=species:S:1:pos:R:3:forces:R:3 energy=-156.06296416611 free_energy=-156.06296416611 stress="-0.0099957712862855 -2.7951097539191e-20 0.0025587594958886 -2.7951097539191e-20 -0.00020786372265412 -4.1657824707266e-20 0.0025587594958886 -4.1657824707266e-20 0.0022958472360544" pbc="T T T"
O        4.60397280       5.00000000       4.57072766     -12.18277555      -0.00000000       6.04064220
H        4.60397280       5.00000000       5.60406100      -0.35497023       0.00000000      -2.80365759
H        5.39602720       5.00000000       4.39593900      12.53774578       0.00000000      -3.23698461
3
Lattice="10.0 0.0 0.0 0.0 10.0 0.0 0.0 0.0 10.0" Properties=species:S:1:pos:R:3:forces:R:3 energy=-156.7518544315 free_energy=-156.7518544315 stress="0.0026111362950691 3.9575824596297e-20 -0.00052404054710179 3.9575824596297e-20 -0.00019482264334163 -8.7358213386771e-20 -0.00052404054710179 -8.7358213386771e-20 0.0029250485243301" pbc="T T T"
O        4.49635102       5.00000000       4.59858156       2.76718222       0.00000000       2.20543228
H        4.49635102       5.00000000       5.63191489      -0.09116122      -0.00000000      -2.72355680
H        5.50364898       5.00000000       4.36808511      -2.67602100      -0.00000000       0.51812452
3
Lattice="10.0 0.0 0.0 0.0 10.0 0.0 0.0 0.0 10.0" Properties=species:S:1:pos:R:3:forces:R:3 energy=-152.81584355294 free_energy=-152.81584355294 stress="-0.0095657402840854 -1.4626756227987e-20 0.0033249085342052 -1.4626756227987e-20 -0.00023190165033945 6.5226652918193e-20 0.0033249085342052 6.5226652918193e-20 -0.027161586515447" pbc="T T T"
O        4.60929959       5.00000000       4.75875889     -11.17025319      -0.00000000     -33.21322296
H        4.60929959       5.00000000       5.45875889      -0.97699460      -0.00000000      37.47369897
H        5.39070041       5.00000000       4.54124111      12.14724779       0.00000000      -4.26047601
3
Lattice="10.0 0.0 0.0 0.0 10.0 0.0 0.0 0.0 10.0" Properties=species:S:1:pos:R:3:forces:R:3 energy=-154.98003257316 free_energy=-154.98003257316 stress="-0.015739859911603 -1.5724171188403e-19 0.0049639324073649 -1.5724171188403e-19 -0.00022271022982916 -7.7676625243928e-20 0.0049639324073649 -7.7676625243928e-20 -0.0068980307594674" pbc="T T T"
O        4.63685669       5.00000000       4.67079633     -21.02699923      -0.00000000       0.56073633
H        4.63685669       5.00000000       5.53746300      -0.54370999       0.00000000       6.28002541
H        5.36314331       5.00000000       4.46253700      21.57070923       0.00000000      -6.84076174
3
Lattice="10.0 0.0 0.0 0.0 10.0 0.0 0.0 0.0 10.0" Properties=species:S:1:pos:R:3:forces:R:3 energy=-156.55969443141 free_energy=-156.55969443141 stress="0.0040153357883433 4.1476741877634e-20 -0.001259991003886 4.1476741877634e-20 -0.00019405159215896 -1.1418654574797e-19 -0.001259991003886 -1.1418654574797e-19 0.0031886891980339" pbc="T T T"
O        4.47549808       5.00000000       4.62933842       3.79610267       0.00000000       1.54379515
H        4.47549808       5.00000000       5.66267176       0.11224547      -0.00000000      -2.74320433
H        5.52450192       5.00000000       4.33732824      -3.90834814      -0.00000000       1.19940918
3
Lattice="10.0 0.0 0.0 0.0 10.0 0.0 0.0 0.0 10.0" Properties=species:S:1:pos:R:3:forces:R:3 energy=-153.54648039 free_energy=-153.54648039 stress="0.00084682201982423 1.8252700891658e-19 0.00041374139516922 1.8252700891658e-19 -0.00021940806575945 -4.4141976182941e-20 0.00041374139516922 -4.4141976182941e-20 -0.026352729393444" pbc="T T T"
O        4.52179451       5.00000000       4.75164572       1.85167804       0.00000000     -37.08245399
H        4.52179451       5.00000000       5.45164572      -0.87645436      -0.00000000      37.51795905
H        5.47820549       5.00000000       4.54835428      -0.97522368      -0.00000000      -0.43550506
3
Lattice="10.0 0.0 0.0 0.0 10.0 0.0 0.0 0.0 10.0" Properties=species:S:1:pos:R:3:forces:R:3 energy=-155.82679789854 free_energy=-155.82679789854 stress="0.0040168118982378 1.4518183014952e-20 -0.0011323632137687 1.4518183014952e-20 -0.00018716018166603 -5.1683624544332e-20 -0.0011323632137687 -5.1683624544332e-20 0.0069574724585463" pbc="T T T"
O        4.47122101       5.00000000       4.52966314       3.77082610      -0.00000000       4.49637355
H        4.47122101       5.00000000       5.72966314       0.10393890      -0.00000000      -5.56507929
H        5.52877899       5.00000000       4.27033686      -3.87476500       0.00000000       1.06870575
3
Lattice="10.0 0.0 0.0 0.0 10.0 0.0 0.0 0.0 10.0" Properties=species:S:1:pos:R:3:forces:R:3 energy=-154.97595120097 free_energy=-154.97595120097 stress="-0.0050011397852921 -1.444594395044e-19 0.0018680884963534 -1.444594395044e-19 -0.00022261216051211 -1.0018459813496e-19 0.0018680884963534 -1.0018459813496e-19 -0.017632344133923" pbc="T T T"
O        4.58253929       5.00000000       4.73843035      -5.24667214      -0.00000000     -20.39215729
H        4.58253929       5.00000000       5.49398591      -0.65748733       0.00000000      22.63469201
H        5.41746071       5.00000000       4.50601409       5.90415947       0.00000000      -2.24253473
3
Lattice="10.0 0.0 0.0 0.0 10.0 0.0 0.0 0.0 10.0" Properties=species:S:1:pos:R:3:forces:R:3 energy=-154.34358483365 free_energy=-154.34358483365 stress="-0.016356873504009 -1.6404150752074e-19 0.0039550191266868 -1.6404150752074e-19 -0.00020643891225411 -8.6179239777855e-22 0.0039550191266868 -8.6179239777855e-22 0.0058138294737653" pbc="T T T"
O        4.63174053       5.00000000       4.48426752     -21.93036564      -0.00000000      11.00779907
H        4.63174053       5.00000000       5.68426752      -0.18909319      -0.00000000      -5.63033453
H        5.36825947       5.00000000       4.31573248      22.11945883       0.00000000      -5.37746453
3
Lattice="10.0 0.0 0.0 0.0 10.0 0.0 0.0 0.0 10.0" Properties=species:S:1:pos:R:3:forces:R:3 energy=-156.39552718271 free_energy=-156.39552718271 stress="-0.0053597745815421 -1.744207790169e-20 0.0014064134244978 -1.744207790169e-20 -0.00020161317968512 -1.6037478850163e-19 0.0014064134244978 -1.6037478850163e-19 0.0041283798877805" pbc="T T T"
O        4.57684765       5.00000000       4.54893580      -6.03413756      -0.00000000       5.76962715
H        4.57684765       5.00000000       5.63782469      -0.21909480       0.00000000      -4.10227614
H        5.42315235       5.00000000       4.36217531       6.25323236      -0.00000000      -1.66735101
3
Lattice="10.0 0.0 0.0 0.0 10.0 0.0 0.0 0.0 10.0" Properties=species:S:1:pos:R:3:forces:R:3 energy=-155.94539778081 free_energy=-155.94539778081 stress="-0.0095625250632045 -1.7139070538143e-19 0.0031059578597621 -1.7139070538143e-19 -0.00021828480932325 -1.3094949698123e-19 0.0031059578597621 -1.3094949698123e-19 -0.0063620076570111" pbc="T T T"
O        4.61015498       5.00000000       4.67845293     -11.73382577      -0.00000000      -2.29537017
H        4.61015498       5.00000000       5.54511959      -0.44271380       0.00000000       6.28497916
H        5.38984502       5.00000000       4.45488041      12.17653956       0.00000000      -3.98960899
3
Lattice="10.0 0.0 0.0 0.0 10.0 0.0 0.0 0.0 10.0" Properties=species:S:1:pos:R:3:forces:R:3 energy=-153.55975849416 free_energy=-153.55975849416 stress="-0.0016019213921363 1.0573934702931e-19 0.00090338327417052 1.0573934702931e-19 -0.00022334194744805 2.183805521021e-20 0.00090338327417052 2.183805521021e-20 -0.026453528203551" pbc="T T T"
O        4.55675155       5.00000000       4.77709945      -1.05141622       0.00000000     -36.40199530
H        4.55675155       5.00000000       5.47709945      -0.66867142      -0.00000000      37.42509020
H        5.44324845       5.00000000       4.52290055       1.72008764      -0.00000000      -1.02309491
3
Lattice="10.0 0.0 0.0 0.0 10.0 0.0 0.0 0.0 10.0" Properties=species:S:1:pos:R:3:forces:R:3 energy=-155.82562787522 free_energy=-155.82562787522 stress="0.0061657852746658 -1.0511561249927e-19 -0.001736860818711 -1.0511561249927e-19 -0.00018741146444183 -1.3497496445704e-19 -0.001736860818711 -1.3497496445704e-19 0.0048246398926962" pbc="T T T"
O        4.41838992       5.00000000       4.60296558       5.22953150      -0.00000000       2.53054773
H        4.41838992       5.00000000       5.69185447       0.13870028       0.00000000      -4.02191877
H        5.58161008       5.00000000       4.30814553      -5.36823178       0.00000000       1.49137105
3
Lattice="10.0 0.0 0.0 0.0 10.0 0.0 0.0 0.0 10.0" Properties=species:S:1:pos:R:3:forces:R:3 energy=-156.91938786768 free_energy=-156.91938786768 stress="0.00074014628418424 2.0089735797452e-19 0.00015111650557517 2.0089735797452e-19 -0.00020282103516704 1.9141489017535e-20 0.00015111650557517 1.9141489017535e-20 -0.0019993937352962" pbc="T T T"
O        4.52179451       5.00000000       4.64053460       1.21194426       0.00000000      -1.94941382
H        4.52179451       5.00000000       5.56275683      -0.35334317      -0.00000000       2.11043223
H        5.47820549       5.00000000       4.43724317      -0.85860109      -0.00000000      -0.16101841
3
Lattice="10.0 0.0 0.0 0.0 10.0 0.0 0.0 0.0 10.0" Properties=species:S:1:pos:R:3:forces:R:3 energy=-153.57558674557 free_energy=-153.57558674557 stress="-0.024398450090847 -1.2437740008219e-19 0.0070014062212052 -1.2437740008219e-19 -0.00021994728478557 8.1956523402969e-20 0.0070014062212052 8.1956523402969e-20 -0.0010110575263633" pbc="T T T"
O        4.66210227       5.00000000       4.60235322     -35.54472730      -0.00000000      11.30765751
H        4.66210227       5.00000000       5.58013100      -0.44323913      -0.00000000      -0.94132663
H        5.33789773       5.00000000       4.41986900      35.98796643       0.00000000     -10.36633088
3
Lattice="10.0 0.0 0.0 0.0 10.0 0.0 0.0 0.0 10.0" Properties=species:S:1:pos:R:3:forces:R:3 energy=-156.70916988796 free_energy=-156.70916988796 stress="0.00078632400564917 2.0391987274062e-19 -9.8833179979971e-05 2.0391987274062e-19 -0.0002077702912742 7.4328613349851e-20 -9.8833179979971e-05 7.4328613349851e-20 -0.0054754734565618" pbc="T T T"
O        4.53004984       5.00000000       4.70142271       1.09776047       0.00000000      -6.44720865
H        4.53004984       5.00000000       5.56808937      -0.17482983      -0.00000000       6.34507983
H        5.46995016       5.00000000       4.43191063      -0.92293065      -0.00000000       0.10212882
3
Lattice="10.0 0.0 0.0 0.0 10.0 0.0 0.0 0.0 10.0" Properties=species:S:1:pos:R:3:forces:R:3 energy=-153.52471240729 free_energy=-153.52471240729 stress="-0.024976568555041 -1.7434264796066e-19 0.0061685342369658 -1.7434264796066e-19 -0.00022306637590875 1.7094276052115e-19 0.0061685342369658 1.7094276052115e-19 -0.0032954579508217" pbc="T T T"
O        4.65822311       5.00000000       4.61431139     -35.69374160      -0.00000000       6.99180106
H        4.65822311       5.00000000       5.53653362      -0.72976415      -0.00000000       2.03829499
H        5.34177689       5.00000000       4.46346638      36.42350574       0.00000000      -9.03009605
3
Lattice="10.0 0.0 0.0 0.0 10.0 0.0 0.0 0.0 10.0" Properties=species:S:1:pos:R:3:forces:R:3 energy=-156.56169956819 free_energy=-156.56169956819 stress="0.0025626698408877 -6.4970742850677e-20 -0.00065997314126983 -6.4970742850677e-20 -0.00019304553018701 -2.0893614552609e-19 -0.00065997314126983 -2.0893614552609e-19 0.0045792241098546" pbc="T T T"
O        4.49819953       5.00000000       4.57860323       2.62872978      -0.00000000       3.40543655
H        4.49819953       5.00000000       5.66749212       0.00830444       0.00000000      -4.06095783
H        5.50180047       5.00000000       4.33250788      -2.63703422       0.00000000       0.65552129
3
Lattice="10.0 0.0 0.0 0.0 10.0 0.0 0.0 0.0 10.0" Properties=species:S:1:pos:R:3:forces:R:3 energy=-156.14330598385 free_energy=-156.14330598385 stress="0.0053755094087087 1.0506042394287e-19 -0.0011631981185013 1.0506042394287e-19 -0.0002000553049932 2.5364358711579e-20 -0.0011631981185013 2.5364358711579e-20 -0.0053330303343501" pbc="T T T"
O        4.44320210       5.00000000       4.69863019       5.05919321       0.00000000      -7.51280494
H        4.44320210       5.00000000       5.56529686      -0.15399482      -0.00000000       6.46991050
H        5.55679790       5.00000000       4.43470314      -4.90519839      -0.00000000       1.04289444
3
Lattice="10.0 0.0 0.0 0.0 10.0 0.0 0.0 0.0 10.0" Properties=species:S:1:pos:R:3:forces:R:3 energy=-156.40673671562 free_energy=-156.40673671562 stress="0.0052057804631508 1.2255983569313e-19 -0.0015846837758628 1.2255983569313e-19 -0.00019476715418921 2.5509647742082e-20 -0.0015846837758628 2.5509647742082e-20 0.0012042744638583" pbc="T T T"
O        4.44873778       5.00000000       4.66456544       4.68579069      -0.00000000      -0.65881669
H        4.44873778       5.00000000       5.64234322       0.11196339      -0.00000000      -0.77689838
H        5.55126222       5.00000000       4.35765678      -4.79775408      -0.00000000       1.43571507
3
Lattice="10.0 0.0 0.0 0.0 10.0 0.0 0.0 0.0 10.0" Properties=species:S:1:pos:R:3:forces:R:3 energy=-154.35023332425 free_energy=-154.35023332425 stress="-0.016036202106502 -1.09767911593e-19 0.0044179291555291 -1.09767911593e-19 -0.00020743523227086 1.5428544761849e-20 0.0044179291555291 1.5428544761849e-20 0.005577225269421" pbc="T T T"
O        4.63528499       5.00000000       4.49848354     -21.80571955      -0.00000000      11.72985527
H        4.63528499       5.00000000       5.69848354      -0.08819714      -0.00000000      -5.66554908
H        5.36471501       5.00000000       4.30151646      21.89391669       0.00000000      -6.06430619
3
Lattice="10.0 0.0 0.0 0.0 10.0 0.0 0.0 0.0 10.0" Properties=species:S:1:pos:R:3:forces:R:3 energy=-156.11705205367 free_energy=-156.11705205367 stress="0.003978996854653 4.0196867947169e-20 -0.001271096430106 4.0196867947169e-20 -0.00018966466982714 -1.7907342480034e-19 -0.001271096430106 -1.7907342480034e-19 0.0060311372930972" pbc="T T T"
O        4.47438130       5.00000000       4.56970994       3.71351660      -0.00000000       3.75905915
H        4.47438130       5.00000000       5.71415439       0.14980368      -0.00000000      -4.96633100
H        5.52561870       5.00000000       4.28584561      -3.86332028      -0.00000000       1.20727184
3
Lattice="10.0 0.0 0.0 0.0 10.0 0.0 0.0 0.0 10.0" Properties=species:S:1:pos:R:3:forces:R:3 energy=-156.37485629355 free_energy=-156.37485629355 stress="-0.0019320869141572 -1.0084302397383e-19 0.00051372102720282 -1.0084302397383e-19 -0.00019660425069918 -1.3948678996574e-19 0.00051372102720282 -1.3948678996574e-19 0.00557791611193" pbc="T T T"
O        4.55131820       5.00000000       4.53411732      -2.00593976      -0.00000000       5.57137353
H        4.55131820       5.00000000       5.67856176      -0.06488321       0.00000000      -4.99472199
H        5.44868180       5.00000000       4.32143824       2.07082297       0.00000000      -0.57665154
3
Lattice="10.0 0.0 0.0 0.0 10.0 0.0 0.0 0.0 10.0" Properties=species:S:1:pos:R:3:forces:R:3 energy=-156.5586844972 free_energy=-156.5586844972 stress="0.0039955822148223 2.66459067317e-20 -0.0013150180655877 2.66459067317e-20 -0.00019432139240041 -1.5440909889374e-19 -0.0013150180655877 -1.5440909889374e-19 0.0032224369997678" pbc="T T T"
O        4.47664641       5.00000000       4.63340256       3.76056379       0.00000000       1.49519822
H        4.47664641       5.00000000       5.66673589       0.13764621       0.00000000      -2.74984732
H        5.52335359       5.00000000       4.33326411      -3.89821000      -0.00000000       1.25464910
3
Lattice="10.0 0.0 0.0 0.0 10.0 0.0 0.0 0.0 10.0" Properties=species:S:1:pos:R:3:forces:R:3 energy=-156.75289454274 free_energy=-156.75289454274 stress="0.0025940491907173 4.7435660924086e-20 -0.0006194860704048 4.7435660924086e-20 -0.00019526239155003 -4.9048011648638e-20 -0.0006194860704048 -4.9048011648638e-20 0.0029756187733954" pbc="T T T"
O        4.49819953       5.00000000       4.60638101       2.70683817       0.00000000       2.12275735
H        4.49819953       5.00000000       5.63971434      -0.03786908      -0.00000000      -2.73794437
H        5.50180047       5.00000000       4.36028566      -2.66896909      -0.00000000       0.61518702
3
Lattice="10.0 0.0 0.0 0.0 10.0 0.0 0.0 0.0 10.0" Properties=species:S:1:pos:R:3:forces:R:3 energy=-156.30926867288 free_energy=-156.30926867288 stress="0.0052680561918998 1.0010165007696e-19 -0.001365639154648 1.0010165007696e-19 -0.00019112427338079 -7.4016188926251e-20 -0.001365639154648 -7.4016188926251e-20 0.0031255668005695" pbc="T T T"
O        4.44424249       5.00000000       4.61961194       4.76367111      -0.00000000       1.47189692
H        4.44424249       5.00000000       5.65294527       0.04946590       0.00000000      -2.69872169
H        5.55575751       5.00000000       4.34705473      -4.81313700      -0.00000000       1.22682477
3
Lattice="10.0 0.0 0.0 0.0 10.0 0.0 0.0 0.0 10.0" Properties=species:S:1:pos:R:3:forces:R:3 energy=-152.76671604314 free_energy=-152.76671604314 stress="-0.0099496069530715 -1.4632447327698e-19 0.0029956557841175 -1.4632447327698e-19 -0.00023224927567762 9.9326522023952e-20 0.0029956557841175 9.9326522023952e-20 -0.026955598228307" pbc="T T T"
O        4.60330681       5.00000000       4.73431974     -11.16626291      -0.00000000     -33.79472011
H        4.60330681       5.00000000       5.43431974      -1.28165839      -0.00000000      37.57590727
H        5.39669319       5.00000000       4.56568026      12.44792130       0.00000000      -3.78118715
3
Lattice="10.0 0.0 0.0 0.0 10.0 0.0 0.0 0.0 10.0" Properties=species:S:1:pos:R:3:forces:R:3 energy=-156.15807973411 free_energy=-156.15807973411 stress="-0.0097297076008692 -1.8158182730023e-19 0.0029083408508176 -1.8158182730023e-19 -0.00021433597079645 1.4957119458732e-19 0.0029083408508176 1.4957119458732e-19 -0.002622602567629" pbc="T T T"
O        4.60765938       5.00000000       4.64157360     -11.90286387      -0.00000000       1.72565876
H        4.60765938       5.00000000       5.56379582      -0.41117725      -0.00000000       1.98691815
H        5.39234062       5.00000000       4.43620418      12.31404112       0.00000000      -3.71257690
3
Lattice="10.0 0.0 0.0 0.0 10.0 0.0 0.0 0.0 10.0" Properties=species:S:1:pos:R:3:forces:R:3 energy=-156.85361104953 free_energy=-156.85361104953 stress="0.0026368794757415 -1.1051294969713e-19 -0.00052575422487748 -1.1051294969713e-19 -0.00019763960988746 -5.8679589929115e-20 -0.00052575422487748 -5.8679589929115e-20 0.0008824184648415" pbc="T T T"
O        4.49726015       5.00000000       4.63026264       2.83102021      -0.00000000       0.26264819
H        4.49726015       5.00000000       5.60804042      -0.12362286      -0.00000000      -0.78344724
H        5.50273985       5.00000000       4.39195958      -2.70739735       0.00000000       0.52079906
3
Lattice="10.0 0.0 0.0 0.0 10.0 0.0 0.0 0.0 10.0" Properties=species:S:1:pos:R:3:forces:R:3 energy=-156.45258398628 free_energy=-156.45258398628 stress="-0.0051364021487992 -1.6640885218334e-19 0.0016899007145743 -1.6640885218334e-19 -0.00021380976221003 -1.247264972749e-19 0.0016899007145743 -1.247264972749e-19 -0.0059521177177978" pbc="T T T"
O        4.57994828       5.00000000       4.67312946      -5.56357637      -0.00000000      -4.32810960
H        4.57994828       5.00000000       5.53979613      -0.46797402       0.00000000       6.34493570
H        5.42005172       5.00000000       4.46020387       6.03155039       0.00000000      -2.01682610
3
Lattice="10.0 0.0 0.0 0.0 10.0 0.0 0.0 0.0 10.0" Properties=species:S:1:pos:R:3:forces:R:3 energy=-156.66097666557 free_energy=-156.66097666557 stress="0.00064235016327635 1.6407860508521e-19 -7.0592259377112e-05 1.6407860508521e-19 -0.00019521686319194 -2.3133988284516e-19 -7.0592259377112e-05 -2.3133988284516e-19 0.0044322551366964" pbc="T T T"
O        4.52342893       5.00000000       4.56460764       0.84565104      -0.00000000       3.99699238
H        4.52342893       5.00000000       5.65349653      -0.08794506       0.00000000      -4.06811313
H        5.47657107       5.00000000       4.34650347      -0.75770598      -0.00000000       0.07112075
3
Lattice="10.0 0.0 0.0 0.0 10.0 0.0 0.0 0.0 10.0" Properties=species:S:1:pos:R:3:forces:R:3 energy=-153.29251121663 free_energy=-153.29251121663 stress="-0.025062468915457 -2.4596126361553e-19 0.0061056912842629 -2.4596126361553e-19 -0.00022731392405326 1.3187809040891e-19 0.0061056912842629 1.3187809040891e-19 -0.0069045803518277" pbc="T T T"
O        4.65764834       5.00000000       4.63943576     -35.56694967      -0.00000000       2.51237701
H        4.65764834       5.00000000       5.50610243      -0.91723412      -0.00000000       6.41051613
H        5.34235166       5.00000000       4.49389757      36.48418379       0.00000000      -8.92289314
3
Lattice="10.0 0.0 0.0 0.0 10.0 0.0 0.0 0.0 10.0" Properties=species:S:1:pos:R:3:forces:R:3 energy=-156.15170843084 free_energy=-156.15170843084 stress="-0.0098167123805531 -1.9169878721257e-19 0.0028236779905777 -1.9169878721257e-19 -0.00021413343459509 1.5052210727647e-19 0.0028236779905777 1.5052210727647e-19 -0.0025780281154483" pbc="T T T"
O        4.60611361       5.00000000       4.63547470     -11.90741907      -0.00000000       1.58142705
H        4.60611361       5.00000000       5.55769692      -0.46888559      -0.00000000       2.00911870
H        5.39388639       5.00000000       4.44230308      12.37630466       0.00000000      -3.59054574
3
Lattice="10.0 0.0 0.0 0.0 10.0 0.0 0.0 0.0 10.0" Properties=species:S:1:pos:R:3:forces:R:3 energy=-156.56138296982 free_energy=-156.56138296982 stress="0.0041157149433366 -3.1836220386834e-21 -0.00091717967529642 -3.1836220386834e-21 -0.00019257227205796 -6.6590700401857e-20 -0.00091717967529642 -6.6590700401857e-20 0.0029986934396602" pbc="T T T"
O        4.46927312       5.00000000       4.60477770       4.00043051      -0.00000000       1.84102912
H        4.46927312       5.00000000       5.63811103      -0.04419595      -0.00000000      -2.70318978
H        5.53072688       5.00000000       4.36188897      -3.95623456      -0.00000000       0.86216066
3
Lattice="10.0 0.0 0.0 0.0 10.0 0.0 0.0 0.0 10.0" Properties=species:S:1:pos:R:3:forces:R:3 energy=-154.96779538301 free_energy=-154.96779538301 stress="-0.0050583894587604 1.9277626719091e-19 0.0018528847632882 1.9277626719091e-19 -0.00022251223046261 -1.9592535533525e-19 0.0018528847632882 -1.9592535533525e-19 -0.017617388767391" pbc="T T T"
O        4.58078674       5.00000000       4.73194013      -5.22168854      -0.00000000     -20.44391045
H        4.58078674       5.00000000       5.48749568      -0.72596441       0.00000000      22.65893268
H        5.41921326       5.00000000       4.51250432       5.94765295      -0.00000000      -2.21502223
3
Lattice="10.0 0.0 0.0 0.0 10.0 0.0 0.0 0.0 10.0" Properties=species:S:1:pos:R:3:forces:R:3 energy=-156.37188430842 free_energy=-156.37188430842 stress="0.0041034143187865 4.1068681938785e-20 -0.00089745711315888 4.1068681938785e-20 -0.00019006868954646 -1.0286118762425e-19 -0.00089745711315888 -1.0286118762425e-19 0.0045753724791776" pbc="T T T"
O        4.46834705       5.00000000       4.57287945       3.96236099      -0.00000000       3.18288393
H        4.46834705       5.00000000       5.66176834      -0.02584682       0.00000000      -4.02489847
H        5.53165295       5.00000000       4.33823166      -3.93651417       0.00000000       0.84201454
3
Lattice="10.0 0.0 0.0 0.0 10.0 0.0 0.0 0.0 10.0" Properties=species:S:1:pos:R:3:forces:R:3 energy=-153.51935055133 free_energy=-153.51935055133 stress="-0.025067243965822 -1.4248902701857e-19 0.0060123717606904 -1.4248902701857e-19 -0.00022305526096508 1.2516879344802e-19 0.0060123717606904 1.2516879344802e-19 -0.0032259985701851" pbc="T T T"
O        4.65764834       5.00000000       4.61165798     -35.73620853      -0.00000000       6.73592570
H        4.65764834       5.00000000       5.53388020      -0.75877014      -0.00000000       2.05096260
H        5.34235166       5.00000000       4.46611980      36.49497867       0.00000000      -8.78688830
3
Lattice="10.0 0.0 0.0 0.0 10.0 0.0 0.0 0.0 10.0" Properties=species:S:1:pos:R:3:forces:R:3 energy=-152.70761712973 free_energy=-152.70761712973 stress="0.0062514818045455 -2.0357384659409e-20 -0.0016932859384112 -2.0357384659409e-20 -0.00021187072487764 8.7990411416936e-20 -0.0016932859384112 8.7990411416936e-20 -0.025736870894423" pbc="T T T"
O        4.42324298       5.00000000       4.81538241       5.68226351       0.00000000     -38.92843158
H        4.42324298       5.00000000       5.51538241      -0.18257982      -0.00000000      37.46164538
H        5.57675702       5.00000000       4.48461759      -5.49968368       0.00000000       1.46678619
3
Lattice="10.0 0.0 0.0 0.0 10.0 0.0 0.0 0.0 10.0" Properties=species:S:1:pos:R:3:forces:R:3 energy=-156.85506598334 free_energy=-156.85506598334 stress="0.0026199984514142 5.4431940496058e-22 -0.0006213212893093 5.4431940496058e-22 -0.00019806048459964 -3.3538781093856e-20 -0.0006213212893093 -3.3538781093856e-20 0.00093456225593696" pbc="T T T"
O        4.49916910       5.00000000       4.63804752       2.76859578      -0.00000000       0.18125188
H        4.49916910       5.00000000       5.61582530      -0.06767402      -0.00000000      -0.79948941
H        5.50083090       5.00000000       4.38417470      -2.70092176      -0.00000000       0.61823753
3
Lattice="10.0 0.0 0.0 0.0 10.0 0.0 0.0 0.0 10.0" Properties=species:S:1:pos:R:3:forces:R:3 energy=-153.58127167158 free_energy=-153.58127167158 stress="0.00089066271130418 2.0431374950113e-19 0.00010343059970126 2.0431374950113e-19 -0.00022004942759192 3.7072682263236e-20 0.00010343059970126 3.7072682263236e-20 -0.026222430240018" pbc="T T T"
O        4.53004984       5.00000000       4.78475604       1.58760572       0.00000000     -37.31236231
H        4.53004984       5.00000000       5.48475604      -0.55024626      -0.00000000      37.42535341
H        5.46995016       5.00000000       4.51524396      -1.03735946      -0.00000000      -0.11299111
3
Lattice="10.0 0.0 0.0 0.0 10.0 0.0 0.0 0.0 10.0" Properties=species:S:1:pos:R:3:forces:R:3 energy=-150.1777573172 free_energy=-150.1777573172 stress="-0.024621288550289 -1.5463330971278e-19 0.0071977375838417 -1.5463330971278e-19 -0.00024301666532673 1.5932962276577e-19 0.0071977375838417 1.5932962276577e-19 -0.028195612887563" pbc="T T T"
O        4.66072745       5.00000000       4.73598918     -34.74827835      -0.00000000     -27.03599412
H        4.66072745       5.00000000       5.43598918      -1.40158908      -0.00000000      37.64823677
H        5.33927255       5.00000000       4.56401082      36.14986742       0.00000000     -10.61224265
3
Lattice="10.0 0.0 0.0 0.0 10.0 0.0 0.0 0.0 10.0" Properties=species:S:1:pos:R:3:forces:R:3 energy=-156.62776344776 free_energy=-156.62776344776 stress="0.0041779718689996 -6.2349215626755e-20 -0.00082491353557782 -6.2349215626755e-20 -0.00019825293349396 2.3209003451446e-20 -0.00082491353557782 2.3209003451446e-20 -0.0017891247819639" pbc="T T T"
O        4.46927312       5.00000000       4.66033326       4.18336226      -0.00000000      -2.91335615
H        4.46927312       5.00000000       5.58255548      -0.16544967      -0.00000000       2.13799418
H        5.53072688       5.00000000       4.41744452      -4.01791259       0.00000000       0.77536197
3
Lattice="10.0 0.0 0.0 0.0 10.0 0.0 0.0 0.0 10.0" Properties=species:S:1:pos:R:3:forces:R:3 energy=-156.01454754097 free_energy=-156.01454754097 stress="0.0025033813040046 3.3517438298278e-21 -0.00077117212155519 3.3517438298278e-21 -0.00018974363398992 -3.0255753441496e-20 -0.00077117212155519 -3.0255753441496e-20 0.0068904931486491" pbc="T T T"
O        4.49916910       5.00000000       4.52693641       2.48779469      -0.00000000       4.81202886
H        4.49916910       5.00000000       5.72693641       0.09429112       0.00000000      -5.57983153
H        5.50083090       5.00000000       4.27306359      -2.58208581      -0.00000000       0.76780267
3
Lattice="10.0 0.0 0.0 0.0 10.0 0.0 0.0 0.0 10.0" Properties=species:S:1:pos:R:3:forces:R:3 energy=-156.56094532678 free_energy=-156.56094532678 stress="0.002589465526138 1.4718079238479e-20 -0.00051801335663002 1.4718079238479e-20 -0.00019235421901211 -8.5008261577352e-20 -0.00051801335663002 -8.5008261577352e-20 0.0045052944440367" pbc="T T T"
O        4.49547220       5.00000000       4.56689354       2.71638316      -0.00000000       3.53062494
H        4.49547220       5.00000000       5.65578243      -0.06729831       0.00000000      -4.04183362
H        5.50452780       5.00000000       4.34421757      -2.64908485      -0.00000000       0.51120869
3
Lattice="10.0 0.0 0.0 0.0 10.0 0.0 0.0 0.0 10.0" Properties=species:S:1:pos:R:3:forces:R:3 energy=-156.70091490944 free_energy=-156.70091490944 stress="-0.0052279762317412 -3.3920691752812e-20 0.0015478768304677 -3.3920691752812e-20 -0.00020697762531772 -3.4694215755239e-21 0.0015478768304677 -3.4694215755239e-21 0.00044232931635286" pbc="T T T"
O        4.57913509       5.00000000       4.61431238      -5.84122099       0.00000000       2.71010260
H        4.57913509       5.00000000       5.59209016      -0.28910204      -0.00000000      -0.86573920
H        5.42086491       5.00000000       4.40790984       6.13032302      -0.00000000      -1.84436340
3
Lattice="10.0 0.0 0.0 0.0 10.0 0.0 0.0 0.0 10.0" Properties=species:S:1:pos:R:3:forces:R:3 energy=-156.07737279473 free_energy=-156.07737279473 stress="-0.0019128036129142 -1.6373900503143e-19 0.00040175602641213 -1.6373900503143e-19 -0.00019651129767574 5.05770290353e-20 0.00040175602641213 5.05770290353e-20 0.0066353250616101" pbc="T T T"
O        4.55675155       5.00000000       4.52709945      -2.17649257      -0.00000000       6.08660811
H        4.55675155       5.00000000       5.72709945       0.10273065      -0.00000000      -5.62923500
H        5.44324845       5.00000000       4.27290055       2.07376192       0.00000000      -0.45737311
3
Lattice="10.0 0.0 0.0 0.0 10.0 0.0 0.0 0.0 10.0" Properties=species:S:1:pos:R:3:forces:R:3 energy=-155.61583023391 free_energy=-155.61583023391 stress="0.0054058762062423 1.4729577106431e-19 -0.0011088359974956 1.4729577106431e-19 -0.00020394593683766 -2.1054527311253e-19 -0.0011088359974956 -2.1054527311253e-19 -0.010252013895129" pbc="T T T"
O        4.44320210       5.00000000       4.72640797       5.17544475      -0.00000000     -13.95491096
H        4.44320210       5.00000000       5.53751908      -0.24090997       0.00000000      12.96076086
H        5.55679790       5.00000000       4.46248092      -4.93453478      -0.00000000       0.99415011
3
Lattice="10.0 0.0 0.0 0.0 10.0 0.0 0.0 0.0 10.0" Properties=species:S:1:pos:R:3:forces:R:3 energy=-156.60014556628 free_energy=-156.60014556628 stress="0.0026705949096162 2.2111978835128e-20 -0.00065646676398607 2.2111978835128e-20 -0.00020506242561919 2.4606022588275e-20 -0.00065646676398607 2.4606022588275e-20 -0.0053487730761118" pbc="T T T"
O        4.50225838       5.00000000       4.70522252       2.90142798       0.00000000      -7.03795141
H        4.50225838       5.00000000       5.57188918      -0.13067668      -0.00000000       6.38051310
H        5.49774162       5.00000000       4.42811082      -2.77075130      -0.00000000       0.65743831
3
Lattice="10.0 0.0 0.0 0.0 10.0 0.0 0.0 0.0 10.0" Properties=species:S:1:pos:R:3:forces:R:3 energy=-156.01342413258 free_energy=-156.01342413258 stress="0.0061582316783241 2.5172060240346e-21 -0.001775091558425 2.5172060240346e-21 -0.0001899860279675 -5.9156495264822e-20 -0.001775091558425 -5.9156495264822e-20 0.0032552496472254" pbc="T T T"
O        4.41955087       5.00000000       4.63525043       5.23870827      -0.00000000       1.16918796
H        4.41955087       5.00000000       5.66858377       0.13491349      -0.00000000      -2.69657008
H        5.58044913       5.00000000       4.33141623      -5.37362177       0.00000000       1.52738212
3
Lattice="10.0 0.0 0.0 0.0 10.0 0.0 0.0 0.0 10.0" Properties=species:S:1:pos:R:3:forces:R:3 energy=-154.97624299784 free_energy=-154.97624299784 stress="-0.015814263411356 -1.2111275431321e-19 0.004879039879062 -1.2111275431321e-19 -0.000222648365247 5.0649458367172e-20 0.004879039879062 5.0649458367172e-20 -0.0068453147648499" pbc="T T T"
O        4.63605989       5.00000000       4.66797632     -21.05282974      -0.00000000       0.41654195
H        4.63605989       5.00000000       5.53464299      -0.57309287      -0.00000000       6.29263441
H        5.36394011       5.00000000       4.46535701      21.62592261       0.00000000      -6.70917636
3
Lattice="10.0 0.0 0.0 0.0 10.0 0.0 0.0 0.0 10.0" Properties=species:S:1:pos:R:3:forces:R:3 energy=-156.46364804078 free_energy=-156.46364804078 stress="-0.0050311083474201 4.6406531387304e-20 0.0017224051099135 4.6406531387304e-20 -0.00021426598948576 -2.1809111069597e-19 0.0017224051099135 -2.1809111069597e-19 -0.0059705999442227" pbc="T T T"
O        4.58345327       5.00000000       4.68610952      -5.60966078      -0.00000000      -4.22683616
H        4.58345327       5.00000000       5.55277619      -0.34637148       0.00000000       6.29966090
H        5.41654673       5.00000000       4.44722381       5.95603226       0.00000000      -2.07282474
3
Lattice="10.0 0.0 0.0 0.0 10.0 0.0 0.0 0.0 10.0" Properties=species:S:1:pos:R:3:forces:R:3 energy=-156.13643887178 free_energy=-156.13643887178 stress="-0.0099817618160727 -1.5641609289407e-19 0.0026502177190064 -1.5641609289407e-19 -0.00021381432428251 7.5610928131602e-21 0.0026502177190064 7.5610928131602e-21 -0.0024991500650436" pbc="T T T"
O        4.60330681       5.00000000       4.62320863     -11.90947275       0.00000000       1.29279973
H        4.60330681       5.00000000       5.54543085      -0.58751957      -0.00000000       2.05372890
H        5.39669319       5.00000000       4.45456915      12.49699232       0.00000000      -3.34652863
3
Lattice="10.0 0.0 0.0 0.0 10.0 0.0 0.0 0.0 10.0" Properties=species:S:1:pos:R:3:forces:R:3 energy=-156.60126550333 free_energy=-156.60126550333 stress="-0.0051435528724554 -9.8703235411154e-21 0.0015396569370299 -9.8703235411154e-21 -0.000205312981822 -8.5040157172305e-20 0.0015396569370299 -8.5040157172305e-20 0.002492784754094" pbc="T T T"
O        4.58345327       5.00000000       4.60277619      -6.01030817       0.00000000       4.70701013
H        4.58345327       5.00000000       5.63610952      -0.08249189       0.00000000      -2.85331001
H        5.41654673       5.00000000       4.36389048       6.09280005      -0.00000000      -1.85370012
3
Lattice="10.0 0.0 0.0 0.0 10.0 0.0 0.0 0.0 10.0" Properties=species:S:1:pos:R:3:forces:R:3 energy=-155.20054560861 free_energy=-155.20054560861 stress="-0.016268229089911 -1.3235035143791e-19 0.0041929659313234 -1.3235035143791e-19 -0.00021508560295161 6.3615915960864e-20 0.0041929659313234 6.3615915960864e-20 -0.00014252357317574" pbc="T T T"
O        4.63174053       5.00000000       4.59537863     -21.49818708      -0.00000000       6.57923554
H        4.63174053       5.00000000       5.57315641      -0.49627217      -0.00000000      -0.87966823
H        5.36825947       5.00000000       4.42684359      21.99445925       0.00000000      -5.69956731
3
Lattice="10.0 0.0 0.0 0.0 10.0 0.0 0.0 0.0 10.0" Properties=species:S:1:pos:R:3:forces:R:3 energy=-156.01223354894 free_energy=-156.01223354894 stress="0.0061297376517811 -2.7067318260031e-20 -0.0018451157533121 -2.7067318260031e-20 -0.0001902614883487 -2.7833249068585e-20 -0.0018451157533121 -2.7833249068585e-20 0.0032946337795024" pbc="T T T"
O        4.42074674       5.00000000       4.63974837       5.20030086      -0.00000000       1.11124863
H        4.42074674       5.00000000       5.67308171       0.15995998      -0.00000000      -2.70226669
H        5.57925326       5.00000000       4.32691829      -5.36026084       0.00000000       1.59101805
3
Lattice="10.0 0.0 0.0 0.0 10.0 0.0 0.0 0.0 10.0" Properties=species:S:1:pos:R:3:forces:R:3 energy=-154.89199488125 free_energy=-154.89199488125 stress="-0.016434794329276 -1.0965378092191e-19 0.0038750019848984 -1.0965378092191e-19 -0.00020970174347468 -1.1878559828856e-19 0.0038750019848984 -1.1878559828856e-19 0.0036260541898645" pbc="T T T"
O        4.63047757       5.00000000       4.53409997     -21.78504339      -0.00000000       9.37823802
H        4.63047757       5.00000000       5.62298886      -0.36291964       0.00000000      -4.12788416
H        5.36952243       5.00000000       4.37701114      22.14796303       0.00000000      -5.25035386
3
Lattice="10.0 0.0 0.0 0.0 10.0 0.0 0.0 0.0 10.0" Properties=species:S:1:pos:R:3:forces:R:3 energy=-155.18983381023 free_energy=-155.18983381023 stress="-0.0016656500458123 -1.0762752476229e-19 0.00087658456013401 -1.0762752476229e-19 -0.00021865114542708 -9.516129721835e-20 0.00087658456013401 -9.516129721835e-20 -0.017359979773443" pbc="T T T"
O        4.55391409       5.00000000       4.73897333      -1.17033410      -0.00000000     -21.67449917
H        4.55391409       5.00000000       5.49452888      -0.61103973       0.00000000      22.66112299
H        5.44608591       5.00000000       4.50547112       1.78137384       0.00000000      -0.98662382
3
Lattice="10.0 0.0 0.0 0.0 10.0 0.0 0.0 0.0 10.0" Properties=species:S:1:pos:R:3:forces:R:3 energy=-155.84554368838 free_energy=-155.84554368838 stress="-0.0054100548471169 1.3463973333408e-20 0.0013144813112889 1.3463973333408e-20 -0.00019807686546815 -3.4652688059381e-21 0.0013144813112889 -3.4652688059381e-21 0.00640259362528" pbc="T T T"
O        4.57684765       5.00000000       4.49338024      -6.19846908      -0.00000000       7.15729034
H        4.57684765       5.00000000       5.69338024      -0.11337759      -0.00000000      -5.59850647
H        5.42315235       5.00000000       4.30661976       6.31184667      -0.00000000      -1.55878387
3
Lattice="10.0 0.0 0.0 0.0 10.0 0.0 0.0 0.0 10.0" Properties=species:S:1:pos:R:3:forces:R:3 energy=-155.87009439839 free_energy=-155.87009439839 stress="0.0042428823352137 -5.9497265997752e-20 -0.00071417099271508 -5.9497265997752e-20 -0.00020566604460726 -1.7130335433397e-19 -0.00071417099271508 -1.7130335433397e-19 -0.010350271316978" pbc="T T T"
O        4.46927312       5.00000000       4.71588881       4.42700328      -0.00000000     -13.62364219
H        4.46927312       5.00000000       5.52699992      -0.34379872       0.00000000      12.95247036
H        5.53072688       5.00000000       4.47300008      -4.08320456      -0.00000000       0.67117183
3
Lattice="10.0 0.0 0.0 0.0 10.0 0.0 0.0 0.0 10.0" Properties=species:S:1:pos:R:3:forces:R:3 energy=-156.01099112149 free_energy=-156.01099112149 stress="0.0024649018665154 6.9670867967544e-20 -0.0009030915593175 6.9670867967544e-20 -0.0001905725642713 -1.162397802678e-19 -0.0009030915593175 -1.162397802678e-19 0.0069665438194623" pbc="T T T"
O        4.50225838       5.00000000       4.53855585       2.40085321      -0.00000000       4.68795700
H        4.50225838       5.00000000       5.73855585       0.15900452      -0.00000000      -5.59313445
H        5.49774162       5.00000000       4.26144415      -2.55985773      -0.00000000       0.90517745
3
Lattice="10.0 0.0 0.0 0.0 10.0 0.0 0.0 0.0 10.0" Properties=species:S:1:pos:R:3:forces:R:3 energy=-156.14548748081 free_energy=-156.14548748081 stress="0.0053182934072766 1.4183242813863e-19 -0.0013618938772859 1.4183242813863e-19 -0.00020069591143472 2.4944092949811e-20 -0.0013618938772859 2.4944092949811e-20 -0.0052271089665958" pbc="T T T"
O        4.44642351       5.00000000       4.71155057       4.94612843       0.00000000      -7.67294197
H        4.44642351       5.00000000       5.57821724      -0.06372779      -0.00000000       6.44440274
H        5.55357649       5.00000000       4.42178276      -4.88240063      -0.00000000       1.22853924
3
Lattice="10.0 0.0 0.0 0.0 10.0 0.0 0.0 0.0 10.0" Properties=species:S:1:pos:R:3:forces:R:3 energy=-154.45295395916 free_energy=-154.45295395916 stress="-0.0158725138302 -1.3013074333739e-19 0.0048822478704379 -1.3013074333739e-19 -0.00022700364559492 -1.6885516829775e-19 0.0048822478704379 -1.6885516829775e-19 -0.01175823448634" pbc="T T T"
O        4.63528499       5.00000000       4.69292799     -20.89720534      -0.00000000      -6.13644326
H        4.63528499       5.00000000       5.50403910      -0.75973959       0.00000000      12.83553065
H        5.36471501       5.00000000       4.49596090      21.65694493       0.00000000      -6.69908739
3
Lattice="10.0 0.0 0.0 0.0 10.0 0.0 0.0 0.0 10.0" Properties=species:S:1:pos:R:3:forces:R:3 energy=-156.8544995641 free_energy=-156.8544995641 stress="0.00067303188929991 1.7567676709392e-19 -9.3093425233706e-05 1.7567676709392e-19 -0.00019785520684373 -1.4549239727647e-19 -9.3093425233706e-05 -1.4549239727647e-19 0.0028656320641424" pbc="T T T"
O        4.52517805       5.00000000       4.59976554       0.88274547      -0.00000000       2.66650375
H        4.52517805       5.00000000       5.63309887      -0.08984182       0.00000000      -2.76157416
H        5.47482195       5.00000000       4.36690113      -0.79290365      -0.00000000       0.09507041
3
Lattice="10.0 0.0 0.0 0.0 10.0 0.0 0.0 0.0 10.0" Properties=species:S:1:pos:R:3:forces:R:3 energy=-154.43750826808 free_energy=-154.43750826808 stress="-0.0097595011725918 -2.5806778290011e-19 0.0030705301172112 -2.5806778290011e-19 -0.0002269828518343 -1.1238807365899e-19 0.0030705301172112 -1.1238807365899e-19 -0.017917736730034" pbc="T T T"
O        4.60611361       5.00000000       4.71880803     -11.37738888      -0.00000000     -18.79118436
H        4.60611361       5.00000000       5.47436358      -0.92025378       0.00000000      22.69454681
H        5.39388639       5.00000000       4.52563642      12.29764266       0.00000000      -3.90336245
3
Lattice="10.0 0.0 0.0 0.0 10.0 0.0 0.0 0.0 10.0" Properties=species:S:1:pos:R:3:forces:R:3 energy=-155.82833233834 free_energy=-155.82833233834 stress="0.0040506390828692 5.1067744793529e-20 -0.0010197689031608 5.1067744793529e-20 -0.00018663815011724 -5.4518001355588e-20 -0.0010197689031608 -5.4518001355588e-20 0.006899858741041" pbc="T T T"
O        4.46927312       5.00000000       4.52144437       3.83215371       0.00000000       4.59799038
H        4.46927312       5.00000000       5.72144437       0.05995789      -0.00000000      -5.55662428
H        5.53072688       5.00000000       4.27855563      -3.89211160      -0.00000000       0.95863390
3
Lattice="10.0 0.0 0.0 0.0 10.0 0.0 0.0 0.0 10.0" Properties=species:S:1:pos:R:3:forces:R:3 energy=-153.31563677544 free_energy=-153.31563677544 stress="-0.024680059970908 -1.279411348073e-19 0.0067204902820825 -1.279411348073e-19 -0.00022724872530844 1.3607168034061e-19 0.0067204902820825 1.3607168034061e-19 -0.0072011976911075" pbc="T T T"
O        4.66007065       5.00000000       4.65002154     -35.38728379      -0.00000000       3.53468964
H        4.66007065       5.00000000       5.51668821      -0.79356041      -0.00000000       6.35597429
H        5.33992935       5.00000000       4.48331179      36.18084420       0.00000000      -9.89066393
3
Lattice="10.0 0.0 0.0 0.0 10.0 0.0 0.0 0.0 10.0" Properties=species:S:1:pos:R:3:forces:R:3 energy=-155.17851406028 free_energy=-155.17851406028 stress="-0.016182459923348 -1.8527060579239e-19 0.0043594137972643 -1.8527060579239e-19 -0.00021850100595405 1.7911001212357e-19 0.0043594137972643 1.7911001212357e-19 -0.0029301884303315" pbc="T T T"
O        4.63240527       5.00000000       4.62601044     -21.32989266      -0.00000000       3.92492119
H        4.63240527       5.00000000       5.54823266      -0.58537345      -0.00000000       2.01109775
H        5.36759473       5.00000000       4.45176734      21.91526611       0.00000000      -5.93601895
3
Lattice="10.0 0.0 0.0 0.0 10.0 0.0 0.0 0.0 10.0" Properties=species:S:1:pos:R:3:forces:R:3 energy=-155.20424932899 free_energy=-155.20424932899 stress="-0.016204500888508 -7.7919537387285e-20 0.0042837355788736 -7.7919537387285e-20 -0.00021517262581961 4.4634566319844e-20 0.0042837355788736 4.4634566319844e-20 -0.00018547226548926" pbc="T T T"
O        4.63240527       5.00000000       4.59823266     -21.47823674      -0.00000000       6.72384325
H        4.63240527       5.00000000       5.57601044      -0.46915952      -0.00000000      -0.89051877
H        5.36759473       5.00000000       4.42398956      21.94739625       0.00000000      -5.83332448
3
Lattice="10.0 0.0 0.0 0.0 10.0 0.0 0.0 0.0 10.0" Properties=species:S:1:pos:R:3:forces:R:3 energy=-156.01626626901 free_energy=-156.01626626901 stress="0.0025360114239423 -3.3085488594638e-20 -0.00063509164072103 -3.3085488594638e-20 -0.0001889717686405 -3.9156172397887e-20 -0.00063509164072103 -3.9156172397887e-20 0.0068183803657372" pbc="T T T"
O        4.49635102       5.00000000       4.51524823       2.57138218      -0.00000000       4.93753496
H        4.49635102       5.00000000       5.71524823       0.02825980      -0.00000000      -5.56585117
H        5.50364898       5.00000000       4.28475177      -2.59964198      -0.00000000       0.62831622
3
Lattice="10.0 0.0 0.0 0.0 10.0 0.0 0.0 0.0 10.0" Properties=species:S:1:pos:R:3:forces:R:3 energy=-156.70279453656 free_energy=-156.70279453656 stress="0.00078559376446958 1.7906378103929e-19 3.636905449995e-05 1.7906378103929e-19 -0.00020709644402179 5.1235691553978e-20 3.636905449995e-05 5.1235691553978e-20 -0.0055553171796078" pbc="T T T"
O        4.52609549       5.00000000       4.68677854       1.21159001       0.00000000      -6.34444637
H        4.52609549       5.00000000       5.55344520      -0.29668631      -0.00000000       6.38582196
H        5.47390451       5.00000000       4.44655480      -0.91490369      -0.00000000      -0.04137559
3
Lattice="10.0 0.0 0.0 0.0 10.0 0.0 0.0 0.0 10.0" Properties=species:S:1:pos:R:3:forces:R:3 energy=-156.14618838813 free_energy=-156.14618838813 stress="-0.0052566660193106 -1.7677591834518e-19 0.0014272287443429 -1.7677591834518e-19 -0.00020098185545732 -1.8389783300585e-19 0.0014272287443429 -1.8389783300585e-19 0.0053676670073033" pbc="T T T"
O        4.58165043       5.00000000       4.54074420      -6.17751193      -0.00000000       6.75198741
H        4.58165043       5.00000000       5.68518864      -0.02380871       0.00000000      -5.04056893
H        5.41834957       5.00000000       4.31481136       6.20132064       0.00000000      -1.71141848
3
Lattice="10.0 0.0 0.0 0.0 10.0 0.0 0.0 0.0 10.0" Properties=species:S:1:pos:R:3:forces:R:3 energy=-155.2823360408 free_energy=-155.2823360408 stress="0.0061429305400246 -7.8969707508745e-20 -0.0017883596817465 -7.8969707508745e-20 -0.00018365344608193 5.8983561765937e-21 -0.0017883596817465 5.8983561765937e-21 0.0071315062336141" pbc="T T T"
O        4.41838992       5.00000000       4.54741002       5.17337309      -0.00000000       4.02397373
H        4.41838992       5.00000000       5.74741002       0.17366531      -0.00000000      -5.55950657
H        5.58161008       5.00000000       4.25258998      -5.34703840      -0.00000000       1.53553284
3
Lattice="10.0 0.0 0.0 0.0 10.0 0.0 0.0 0.0 10.0" Properties=species:S:1:pos:R:3:forces:R:3 energy=-156.70639424596 free_energy=-156.70639424596 stress="0.0007869161790297 1.6496130266148e-19 -3.191703173077e-05 1.6496130266148e-19 -0.00020741976248243 -2.7480325896704e-19 -3.191703173077e-05 -2.7480325896704e-19 -0.0055162023740546" pbc="T T T"
O        4.52801587       5.00000000       4.69411596       1.15503587       0.00000000      -6.39634157
H        4.52801587       5.00000000       5.56078263      -0.23522127       0.00000000       6.36554072
H        5.47198413       5.00000000       4.43921737      -0.91981460      -0.00000000       0.03080085
3
Lattice="10.0 0.0 0.0 0.0 10.0 0.0 0.0 0.0 10.0" Properties=species:S:1:pos:R:3:forces:R:3 energy=-154.9680635882 free_energy=-154.9680635882 stress="-0.015958837261899 -2.205992043802e-19 0.0047068584251392 -2.205992043802e-19 -0.00022254552837691 1.3854547826993e-19 0.0047068584251392 1.3854547826993e-19 -0.0067437359991523" pbc="T T T"
O        4.63453203       5.00000000       4.66231817     -21.10094308      -0.00000000       0.12771597
H        4.63453203       5.00000000       5.52898484      -0.63276446      -0.00000000       6.31788968
H        5.36546797       5.00000000       4.47101516      21.73370754       0.00000000      -6.44560565
3
Lattice="10.0 0.0 0.0 0.0 10.0 0.0 0.0 0.0 10.0" Properties=species:S:1:pos:R:3:forces:R:3 energy=-154.34295229164 free_energy=-154.34295229164 stress="0.0063813663405331 3.8704759554487e-20 -0.0012528236490008 3.8704759554487e-20 -0.00020634223819662 -1.4287717231391e-19 -0.0012528236490008 -1.4287717231391e-19 -0.016913377229848" pbc="T T T"
O        4.41511732       5.00000000       4.75605887       5.83592739      -0.00000000     -23.83398403
H        4.41511732       5.00000000       5.51161443      -0.30428814       0.00000000      22.76446719
H        5.58488268       5.00000000       4.48838557      -5.53163925      -0.00000000       1.06951684
3
Lattice="10.0 0.0 0.0 0.0 10.0 0.0 0.0 0.0 10.0" Properties=species:S:1:pos:R:3:forces:R:3 energy=-153.53956594024 free_energy=-153.53956594024 stress="-0.02468955664691 -1.1557660557486e-19 0.0066300966016352 -1.1557660557486e-19 -0.00022314346241111 1.6690040395501e-19 0.0066300966016352 1.6690040395501e-19 -0.0035188164603174" pbc="T T T"
O        4.66007065       5.00000000       4.62224376     -35.55424999      -0.00000000       7.75739003
H        4.66007065       5.00000000       5.54446599      -0.64437960      -0.00000000       2.00061033
H        5.33992935       5.00000000       4.45553401      36.19862959       0.00000000      -9.75800036
3
Lattice="10.0 0.0 0.0 0.0 10.0 0.0 0.0 0.0 10.0" Properties=species:S:1:pos:R:3:forces:R:3 energy=-155.84731381235 free_energy=-155.84731381235 stress="-0.0053689638689058 1.2842708723328e-19 0.0013396441482173 1.2842708723328e-19 -0.0001985074882493 -4.1787279530968e-20 0.0013396441482173 -4.1787279530968e-20 0.0063941734824703" pbc="T T T"
O        4.57834722       5.00000000       4.49993354      -6.21544577       0.00000000       7.20523392
H        4.57834722       5.00000000       5.69993354      -0.07003118      -0.00000000      -5.61106974
H        5.42165278       5.00000000       4.30006646       6.28547696      -0.00000000      -1.59416419
3
Lattice="10.0 0.0 0.0 0.0 10.0 0.0 0.0 0.0 10.0" Properties=species:S:1:pos:R:3:forces:R:3 energy=-156.14456568147 free_energy=-156.14456568147 stress="-0.0053230082808767 1.8645504378832e-20 0.0013928942383993 1.8645504378832e-20 -0.00020031448427105 -1.0803336345864e-19 0.0013928942383993 -1.0803336345864e-19 0.0053824437031763" pbc="T T T"
O        4.57913509       5.00000000       4.53097905      -6.15148131      -0.00000000       6.68036790
H        4.57913509       5.00000000       5.67542350      -0.09167688       0.00000000      -5.01997805
H        5.42086491       5.00000000       4.32457650       6.24315819      -0.00000000      -1.66038985
3
Lattice="10.0 0.0 0.0 0.0 10.0 0.0 0.0 0.0 10.0" Properties=species:S:1:pos:R:3:forces:R:3 energy=-156.30813590003 free_energy=-156.30813590003 stress="0.0025134346279756 3.4934777873265e-20 -0.00078643664798466 3.4934777873265e-20 -0.00019165579570039 -1.3464656533568e-19 -0.00078643664798466 -1.3464656533568e-19 0.0059011935697407" pbc="T T T"
O        4.50016880       5.00000000       4.55859528       2.50673557      -0.00000000       4.19213739
H        4.50016880       5.00000000       5.70303973       0.09111634       0.00000000      -4.97679209
H        5.49983120       5.00000000       4.29696027      -2.59785191      -0.00000000       0.78465470
3
Lattice="10.0 0.0 0.0 0.0 10.0 0.0 0.0 0.0 10.0" Properties=species:S:1:pos:R:3:forces:R:3 energy=-155.57194658433 free_energy=-155.57194658433 stress="0.0051381017367409 1.8119457256753e-21 -0.001646152353119 1.8119457256753e-21 -0.00018598786136626 -1.9576406912828e-20 -0.001646152353119 -1.9576406912828e-20 0.0071341683530245" pbc="T T T"
O        4.44756402       5.00000000       4.54917360       4.52735487       0.00000000       4.08109801
H        4.44756402       5.00000000       5.74917360       0.19487395      -0.00000000      -5.56912997
H        5.55243598       5.00000000       4.25082640      -4.72222883      -0.00000000       1.48803196
3
Lattice="10.0 0.0 0.0 0.0 10.0 0.0 0.0 0.0 10.0" Properties=species:S:1:pos:R:3:forces:R:3 energy=-152.9977735547 free_energy=-152.9977735547 stress="-0.024856323945513 -8.0506159707693e-20 0.0061955938310678 -8.0506159707693e-20 -0.00021247097397166 -1.1897594191706e-19 0.0061955938310678 -1.1897594191706e-19 0.0042731762478333" pbc="T T T"
O        4.65943430       5.00000000       4.50849333     -36.10575678      -0.00000000      14.15880359
H        4.65943430       5.00000000       5.65293778      -0.28061019       0.00000000      -5.05563397
H        5.34056570       5.00000000       4.34706222      36.38636697       0.00000000      -9.10316963
3
Lattice="10.0 0.0 0.0 0.0 10.0 0.0 0.0 0.0 10.0" Properties=species:S:1:pos:R:3:forces:R:3 energy=-155.08707812227 free_energy=-155.08707812227 stress="-0.016412739099843 -1.2615390366128e-19 0.0039388747177638 -1.2615390366128e-19 -0.00021207375732437 2.2354577348929e-20 0.0039388747177638 2.2354577348929e-20 0.0020190635390315" pbc="T T T"
O        4.63047757       5.00000000       4.56187775     -21.66799067      -0.00000000       8.14575846
H        4.63047757       5.00000000       5.59521108      -0.44881730      -0.00000000      -2.80921726
H        5.36952243       5.00000000       4.40478892      22.11680797       0.00000000      -5.33654120
3
Lattice="10.0 0.0 0.0 0.0 10.0 0.0 0.0 0.0 10.0" Properties=species:S:1:pos:R:3:forces:R:3 energy=-153.57490998884 free_energy=-153.57490998884 stress="0.00088468267078458 1.3988326415659e-19 0.0001704391475037 1.3988326415659e-19 -0.00021985928654478 -1.375368501307e-20 0.0001704391475037 -1.375368501307e-20 -0.026254632676413" pbc="T T T"
O        4.52801587       5.00000000       4.77744929       1.64737110       0.00000000     -37.26318114
H        4.52801587       5.00000000       5.47744929      -0.62041477      -0.00000000      37.44666465
H        5.47198413       5.00000000       4.52255071      -1.02695633      -0.00000000      -0.18348351
3
Lattice="10.0 0.0 0.0 0.0 10.0 0.0 0.0 0.0 10.0" Properties=species:S:1:pos:R:3:forces:R:3 energy=-155.41978040355 free_energy=-155.41978040355 stress="-0.0096320790060099 -2.3485817160499e-20 0.0031058089491613 -2.3485817160499e-20 -0.00022231616989144 -1.9569543039125e-19 0.0031058089491613 -1.9569543039125e-19 -0.011266938516808" pbc="T T T"
O        4.60846771       5.00000000       4.70016943     -11.56528444      -0.00000000      -8.85490148
H        4.60846771       5.00000000       5.51128054      -0.64573880       0.00000000      12.82695785
H        5.39153229       5.00000000       4.48871946      12.21102323       0.00000000      -3.97205638
3
Lattice="10.0 0.0 0.0 0.0 10.0 0.0 0.0 0.0 10.0" Properties=species:S:1:pos:R:3:forces:R:3 energy=-153.46193599419 free_energy=-153.46193599419 stress="0.0027874608036252 9.419555265552e-20 -0.00037288328526325 9.419555265552e-20 -0.00021698139085736 7.6202533940838e-20 -0.00037288328526325 7.6202533940838e-20 -0.026120766094026" pbc="T T T"
O        4.50016880       5.00000000       4.78081750       3.42810797      -0.00000000     -37.83330946
H        4.50016880       5.00000000       5.48081750      -0.54728337      -0.00000000      37.46224836
H        5.49983120       5.00000000       4.51918250      -2.88082461      -0.00000000       0.37106111
3
Lattice="10.0 0.0 0.0 0.0 10.0 0.0 0.0 0.0 10.0" Properties=species:S:1:pos:R:3:forces:R:3 energy=-155.91474685458 free_energy=-155.91474685458 stress="-0.0099187050903729 -1.2249050840837e-19 0.0027716621795774 -1.2249050840837e-19 -0.00021773258285209 1.1271552961643e-19 0.0027716621795774 1.1271552961643e-19 -0.0061794377201399" pbc="T T T"
O        4.60397280       5.00000000       4.65406100     -11.74778753       0.00000000      -2.87513860
H        4.60397280       5.00000000       5.52072766      -0.68889520      -0.00000000       6.38045501
H        5.39602720       5.00000000       4.47927234      12.43668274       0.00000000      -3.50531640
3
Lattice="10.0 0.0 0.0 0.0 10.0 0.0 0.0 0.0 10.0" Properties=species:S:1:pos:R:3:forces:R:3 energy=-156.14082440371 free_energy=-156.14082440371 stress="0.0054082483672262 1.212380759636e-19 -0.0010277119652121 1.212380759636e-19 -0.00019966092081676 -1.944392896346e-19 -0.0010277119652121 -1.944392896346e-19 -0.0053995408650941" pbc="T T T"
O        4.44122190       5.00000000       4.68997648       5.13222153      -0.00000000      -7.40448323
H        4.44122190       5.00000000       5.55664314      -0.21531062       0.00000000       6.48659179
H        5.55877810       5.00000000       4.44335686      -4.91691091      -0.00000000       0.91789144
3
Lattice="10.0 0.0 0.0 0.0 10.0 0.0 0.0 0.0 10.0" Properties=species:S:1:pos:R:3:forces:R:3 energy=-155.21413489406 free_energy=-155.21413489406 stress="-0.016004341031551 -1.8476159327132e-19 0.0045516741753496 -1.8476159327132e-19 -0.00021547561856999 2.7819394810276e-20 0.0045516741753496 2.7819394810276e-20 -0.00032419505525946" pbc="T T T"
O        4.63453203       5.00000000       4.60676262     -21.41147867      -0.00000000       7.15660298
H        4.63453203       5.00000000       5.58454040      -0.38926894      -0.00000000      -0.92280858
H        5.36546797       5.00000000       4.41545960      21.80074761       0.00000000      -6.23379440
3
Lattice="10.0 0.0 0.0 0.0 10.0 0.0 0.0 0.0 10.0" Properties=species:S:1:pos:R:3:forces:R:3 energy=-156.40852413712 free_energy=-156.40852413712 stress="0.00060819816307321 1.6060688926963e-19 -0.00020736980369526 1.6060688926963e-19 -0.00019402352451468 -1.4059775944328e-19 -0.00020736980369526 -1.4059775944328e-19 0.0057550854824227" pbc="T T T"
O        4.52609549       5.00000000       4.54788965       0.69891173       0.00000000       4.77287424
H        4.52609549       5.00000000       5.69233409       0.02719685       0.00000000      -4.98878254
H        5.47390451       5.00000000       4.30766591      -0.72610857      -0.00000000       0.21590831
3
Lattice="10.0 0.0 0.0 0.0 10.0 0.0 0.0 0.0 10.0" Properties=species:S:1:pos:R:3:forces:R:3 energy=-154.8972355971 free_energy=-154.8972355971 stress="0.0042718391884493 -1.9445696711426e-20 -0.00065451870701442 -1.9445696711426e-20 -0.00020988731826205 -2.1785170022116e-19 -0.00065451870701442 -2.1785170022116e-19 -0.017034909497532" pbc="T T T"
O        4.46927312       5.00000000       4.74366659       4.57071618      -0.00000000     -23.35443924
H        4.46927312       5.00000000       5.49922214      -0.45792986       0.00000000      22.73938865
H        5.53072688       5.00000000       4.50077786      -4.11278633      -0.00000000       0.61505060
3
Lattice="10.0 0.0 0.0 0.0 10.0 0.0 0.0 0.0 10.0" Properties=species:S:1:pos:R:3:forces:R:3 energy=-156.82561049194 free_energy=-156.82561049194 stress="-0.0018421902881612 -1.1592454667785e-19 0.00056006614700444 -1.1592454667785e-19 -0.00020127847623562 -7.75038747901e-20 0.00056006614700444 -7.75038747901e-20 0.0027361883616241" pbc="T T T"
O        4.55391409       5.00000000       4.60008444      -1.88771579      -0.00000000       3.43443407
H        4.55391409       5.00000000       5.63341777      -0.09503976       0.00000000      -2.80244170
H        5.44608591       5.00000000       4.36658223       1.98275555       0.00000000      -0.63199237
3
Lattice="10.0 0.0 0.0 0.0 10.0 0.0 0.0 0.0 10.0" Properties=species:S:1:pos:R:3:forces:R:3 energy=-156.69327693027 free_energy=-156.69327693027 stress="-0.0052984269991033 -2.8503735217225e-20 0.0015195847749675 -2.8503735217225e-20 -0.00020656280335252 -5.6847594615607e-22 0.0015195847749675 -5.6847594615607e-22 0.00045215677739316" pbc="T T T"
O        4.57684765       5.00000000       4.60449135      -5.80712275      -0.00000000       2.63774149
H        4.57684765       5.00000000       5.58226913      -0.37329053      -0.00000000      -0.83677920
H        5.42315235       5.00000000       4.41773087       6.18041329      -0.00000000      -1.80096229
3
Lattice="10.0 0.0 0.0 0.0 10.0 0.0 0.0 0.0 10.0" Properties=species:S:1:pos:R:3:forces:R:3 energy=-154.45755087779 free_energy=-154.45755087779 stress="-0.0095685553919693 -6.7407509404216e-21 0.0032331719716383 -6.7407509404216e-21 -0.00022700735848983 -1.0164858169729e-19 0.0032331719716383 -1.0164858169729e-19 -0.018022316552261" pbc="T T T"
O        4.60929959       5.00000000       4.73098112     -11.37213811      -0.00000000     -18.49956350
H        4.60929959       5.00000000       5.48653667      -0.78116840       0.00000000      22.64286391
H        5.39070041       5.00000000       4.51346333      12.15330651       0.00000000      -4.14330040
3
Lattice="10.0 0.0 0.0 0.0 10.0 0.0 0.0 0.0 10.0" Properties=species:S:1:pos:R:3:forces:R:3 energy=-156.92792760773 free_energy=-156.92792760773 stress="-0.001824898553311 -8.8280237729192e-20 0.00064282262435272 -8.8280237729192e-20 -0.0002034644270684 9.1177483017678e-20 0.00064282262435272 9.1177483017678e-20 0.00064744117341524" pbc="T T T"
O        4.55215657       5.00000000       4.62092785      -1.73667957      -0.00000000       1.56362781
H        4.55215657       5.00000000       5.59870563      -0.21880620      -0.00000000      -0.84172104
H        5.44784343       5.00000000       4.40129437       1.95548577       0.00000000      -0.72190677
3
Lattice="10.0 0.0 0.0 0.0 10.0 0.0 0.0 0.0 10.0" Properties=species:S:1:pos:R:3:forces:R:3 energy=-155.19251528816 free_energy=-155.19251528816 stress="-0.016391140637713 -1.8294658958532e-19 0.0040093773016278 -1.8294658958532e-19 -0.00021493300946437 -2.039239293876e-21 0.0040093773016278 -2.039239293876e-21 -6.1515579208099e-05" pbc="T T T"
O        4.63047757       5.00000000       4.58965553     -21.53465319      -0.00000000       6.28952435
H        4.63047757       5.00000000       5.56743331      -0.55122088      -0.00000000      -0.85782419
H        5.36952243       5.00000000       4.43256669      22.08587407       0.00000000      -5.43170015
3
Lattice="10.0 0.0 0.0 0.0 10.0 0.0 0.0 0.0 10.0" Properties=species:S:1:pos:R:3:forces:R:3 energy=-156.63108737794 free_energy=-156.63108737794 stress="0.0040874933508355 -1.7005053692956e-20 -0.0011724910898145 -1.7005053692956e-20 -0.00019955488422145 9.6466937031501e-20 -0.0011724910898145 9.6466937031501e-20 -0.0015973047217253" pbc="T T T"
O        4.47549808       5.00000000       4.68489398       3.97156137       0.00000000      -3.20410327
H        4.47549808       5.00000000       5.60711620       0.00852490      -0.00000000       2.08798237
H        5.52450192       5.00000000       4.39288380      -3.98008627       0.00000000       1.11612089
3
Lattice="10.0 0.0 0.0 0.0 10.0 0.0 0.0 0.0 10.0" Properties=species:S:1:pos:R:3:forces:R:3 energy=-155.2135680234 free_energy=-155.2135680234 stress="0.00085630894571412 1.7038028449431e-19 0.00013482796853547 1.7038028449431e-19 -0.00021540117526067 -2.557453763153e-19 0.00013482796853547 -2.557453763153e-19 -0.017170120496626" pbc="T T T"
O        4.52704145       5.00000000       4.74600653       1.49961916       0.00000000     -22.52552613
H        4.52704145       5.00000000       5.50156208      -0.50584567       0.00000000      22.67103496
H        5.47295855       5.00000000       4.49843792      -0.99377350      -0.00000000      -0.14550883
3
Lattice="10.0 0.0 0.0 0.0 10.0 0.0 0.0 0.0 10.0" Properties=species:S:1:pos:R:3:forces:R:3 energy=-155.8740150427 free_energy=-155.8740150427 stress="0.0042203927636333 3.5731039245803e-21 -0.00083266203120219 3.5731039245803e-21 -0.00020599714264382 -2.5186653432474e-19 -0.00083266203120219 -2.5186653432474e-19 -0.010290823558678" pbc="T T T"
O        4.47122101       5.00000000       4.72410758       4.35610980      -0.00000000     -13.71946700
H        4.47122101       5.00000000       5.53521869      -0.27895861       0.00000000      12.93371128
H        5.52877899       5.00000000       4.46478131      -4.07715118      -0.00000000       0.78575572
3
Lattice="10.0 0.0 0.0 0.0 10.0 0.0 0.0 0.0 10.0" Properties=species:S:1:pos:R:3:forces:R:3 energy=-152.70747491369 free_energy=-152.70747491369 stress="-0.024374272633834 -1.5343392969369e-19 0.0069128134973719 -1.5343392969369e-19 -0.00021180710490433 6.1097809992709e-20 0.0069128134973719 6.1097809992709e-20 0.0048615370991643" pbc="T T T"
O        4.66282019       5.00000000       4.49386041     -35.91396032      -0.00000000      15.94160854
H        4.66282019       5.00000000       5.69386041      -0.12321794      -0.00000000      -5.68321835
H        5.33717981       5.00000000       4.30613959      36.03717826       0.00000000     -10.25839019
3
Lattice="10.0 0.0 0.0 0.0 10.0 0.0 0.0 0.0 10.0" Properties=species:S:1:pos:R:3:forces:R:3 energy=-155.87142918718 free_energy=-155.87142918718 stress="0.0052883600558877 6.7638164748842e-20 -0.0012345594175283 6.7638164748842e-20 -0.00018609839300994 -1.8284033982306e-19 -0.0012345594175283 -1.8284033982306e-19 0.0059108648480092" pbc="T T T"
O        4.44122190       5.00000000       4.55108759       4.76143388      -0.00000000       3.82433870
H        4.44122190       5.00000000       5.69553203       0.04149882       0.00000000      -4.92701235
H        5.55877810       5.00000000       4.30446797      -4.80293270      -0.00000000       1.10267365
3
Lattice="10.0 0.0 0.0 0.0 10.0 0.0 0.0 0.0 10.0" Properties=species:S:1:pos:R:3:forces:R:3 energy=-153.2630014023 free_energy=-153.2630014023 stress="0.0042553358878099 -3.6703289656844e-20 -0.00082712059907857 -3.6703289656844e-20 -0.00021469836438564 2.1741471960093e-20 -0.00082712059907857 2.1741471960093e-20 -0.026007101495793" pbc="T T T"
O        4.47329616       5.00000000       4.78785070       4.57965140       0.00000000     -38.25450389
H        4.47329616       5.00000000       5.48785070      -0.44880516      -0.00000000      37.47069752
H        5.52670384       5.00000000       4.51214930      -4.13084624       0.00000000       0.78380637
3
Lattice="10.0 0.0 0.0 0.0 10.0 0.0 0.0 0.0 10.0" Properties=species:S:1:pos:R:3:forces:R:3 energy=-156.56148566282 free_energy=-156.56148566282 stress="0.0040694885572556 1.5759758227995e-21 -0.0010911882901013 1.5759758227995e-21 -0.00019328202581576 -7.4738870948393e-20 -0.0010911882901013 -7.4738870948393e-20 0.0030908093319875" pbc="T T T"
O        4.47224270       5.00000000       4.61709428       3.90021632      -0.00000000       1.69125950
H        4.47224270       5.00000000       5.65042761       0.03488528      -0.00000000      -2.72323685
H        5.52775730       5.00000000       4.34957239      -3.93510160       0.00000000       1.03197735
3
Lattice="10.0 0.0 0.0 0.0 10.0 0.0 0.0 0.0 10.0" Properties=species:S:1:pos:R:3:forces:R:3 energy=-153.00641261713 free_energy=-153.00641261713 stress="-0.024460684669974 -8.9129740678695e-20 0.0068115282086762 -8.9129740678695e-20 -0.00021312322764137 -1.2969025789806e-19 0.0068115282086762 -1.2969025789806e-19 0.0039477833066281" pbc="T T T"
O        4.66210227       5.00000000       4.51901988     -35.88973560      -0.00000000      15.17529533
H        4.66210227       5.00000000       5.66346433      -0.19738937       0.00000000      -5.08891693
H        5.33789773       5.00000000       4.33653567      36.08712497       0.00000000     -10.08637840
3
Lattice="10.0 0.0 0.0 0.0 10.0 0.0 0.0 0.0 10.0" Properties=species:S:1:pos:R:3:forces:R:3 energy=-155.20774766602 free_energy=-155.20774766602 stress="-0.016139270230431 -1.2395760495923e-19 0.0043737916161087 -1.2395760495923e-19 -0.00021526669065744 4.4902141722873e-20 0.0043737916161087 4.4902141722873e-20 -0.00023006455606561" pbc="T T T"
O        4.63309213       5.00000000       4.60108145     -21.45713734      -0.00000000       6.86827746
H        4.63309213       5.00000000       5.57885923      -0.44228803      -0.00000000      -0.90132437
H        5.36690787       5.00000000       4.42114077      21.89942536       0.00000000      -5.96695309
3
Lattice="10.0 0.0 0.0 0.0 10.0 0.0 0.0 0.0 10.0" Properties=species:S:1:pos:R:3:forces:R:3 energy=-155.22160033649 free_energy=-155.22160033649 stress="0.00086252351871699 2.1835537004922e-19 3.3392076722317e-05 2.1835537004922e-19 -0.000215758780106 -2.6629434676281e-19 3.3392076722317e-05 -2.6629434676281e-19 -0.017117264280806" pbc="T T T"
O        4.53004984       5.00000000       4.75697826       1.41142345       0.00000000     -22.59979772
H        4.53004984       5.00000000       5.51253382      -0.40519230       0.00000000      22.63832120
H        5.46995016       5.00000000       4.48746618      -1.00623115      -0.00000000      -0.03852348
3
Lattice="10.0 0.0 0.0 0.0 10.0 0.0 0.0 0.0 10.0" Properties=species:S:1:pos:R:3:forces:R:3 energy=-156.14422059033 free_energy=-156.14422059033 stress="-0.0017471672546118 1.8257356878557e-19 0.00086995689869325 1.8257356878557e-19 -0.00021392352682143 -2.6743605608272e-19 0.00086995689869325 -2.6743605608272e-19 -0.010683185434967" pbc="T T T"
O        4.55050683       5.00000000       4.69730039      -1.25821518      -0.00000000     -11.92822885
H        4.55050683       5.00000000       5.50841150      -0.60112797       0.00000000      12.90005806
H        5.44949317       5.00000000       4.49158850       1.85934314      -0.00000000      -0.97182921
3
Lattice="10.0 0.0 0.0 0.0 10.0 0.0 0.0 0.0 10.0" Properties=species:S:1:pos:R:3:forces:R:3 energy=-155.32109349621 free_energy=-155.32109349621 stress="0.0062697626447972 -6.5545567445706e-20 -0.0015965065080755 -6.5545567445706e-20 -0.00020298789314563 -1.3141497178441e-19 -0.0015965065080755 -1.3141497178441e-19 -0.010084553940268" pbc="T T T"
O        4.41955087       5.00000000       4.74636155       5.56192335      -0.00000000     -14.32389030
H        4.41955087       5.00000000       5.55747266      -0.08585831       0.00000000      12.95008511
H        5.58044913       5.00000000       4.44252734      -5.47606504       0.00000000       1.37380519
3
Lattice="10.0 0.0 0.0 0.0 10.0 0.0 0.0 0.0 10.0" Properties=species:S:1:pos:R:3:forces:R:3 energy=-156.63130650196 free_energy=-156.63130650196 stress="-0.0018604450326667 -1.7573188065211e-19 0.00048640825987522 -1.7573188065211e-19 -0.00019958981674581 -1.1303344843811e-19 0.00048640825987522 -1.1303344843811e-19 0.0043564464765574" pbc="T T T"
O        4.55577898       5.00000000       4.57921293      -2.02014107      -0.00000000       4.68465421
H        4.55577898       5.00000000       5.66810182       0.00867637       0.00000000      -4.13292685
H        5.44422102       5.00000000       4.33189818       2.01146470       0.00000000      -0.55172736
3
Lattice="10.0 0.0 0.0 0.0 10.0 0.0 0.0 0.0 10.0" Properties=species:S:1:pos:R:3:forces:R:3 energy=-154.34813932438 free_energy=-154.34813932438 stress="-0.016169128065366 -1.3237068019585e-19 0.0042350801737596 -1.3237068019585e-19 -0.00020701827910006 -2.1598279714323e-20 0.0042350801737596 -2.1598279714323e-20 0.0056769771971877" pbc="T T T"
O        4.63380106       5.00000000       4.49281372     -21.85896554      -0.00000000      11.44181494
H        4.63380106       5.00000000       5.69281372      -0.12810177      -0.00000000      -5.65172515
H        5.36619894       5.00000000       4.30718628      21.98706731       0.00000000      -5.79008978
3
Lattice="10.0 0.0 0.0 0.0 10.0 0.0 0.0 0.0 10.0" Properties=species:S:1:pos:R:3:forces:R:3 energy=-155.5797783666 free_energy=-155.5797783666 stress="0.0052963159314902 -1.8258518064754e-20 -0.0011965243417408 -1.8258518064754e-20 -0.00018410446106827 -8.9501376132939e-21 -0.0011965243417408 -8.9501376132939e-21 0.0069049581709492" pbc="T T T"
O        4.44028221       5.00000000       4.51897169       4.75813605      -0.00000000       4.47616488
H        4.44028221       5.00000000       5.71897169       0.04296914      -0.00000000      -5.54291544
H        5.55971779       5.00000000       4.28102831      -4.80110520      -0.00000000       1.06675056
3
Lattice="10.0 0.0 0.0 0.0 10.0 0.0 0.0 0.0 10.0" Properties=species:S:1:pos:R:3:forces:R:3 energy=-155.62083282915 free_energy=-155.62083282915 stress="-0.0098094731484951 -1.0750364109989e-19 0.0027215136951018 -1.0750364109989e-19 -0.0002048230896833 -1.5514480965726e-19 0.0027215136951018 -1.5514480965726e-19 0.0050333703596835" pbc="T T T"
O        4.60846771       5.00000000       4.53350276     -12.36452672      -0.00000000       8.54221408
H        4.60846771       5.00000000       5.67794720      -0.07937722       0.00000000      -5.05995449
H        5.39153229       5.00000000       4.32205280      12.44390394       0.00000000      -3.48225959
3
Lattice="10.0 0.0 0.0 0.0 10.0 0.0 0.0 0.0 10.0" Properties=species:S:1:pos:R:3:forces:R:3 energy=-153.46998704642 free_energy=-153.46998704642 stress="0.0027699578741048 6.1094877912171e-21 -0.00051270036484844 6.1094877912171e-21 -0.0002173489477836 2.2841616100823e-20 -0.00051270036484844 2.2841616100823e-20 -0.026049641177116" pbc="T T T"
O        4.50334812       5.00000000       4.79241263       3.32440060       0.00000000     -37.94617818
H        4.50334812       5.00000000       5.49241263      -0.44319363      -0.00000000      37.43195516
H        5.49665188       5.00000000       4.50758737      -2.88120696      -0.00000000       0.51422302
3
Lattice="10.0 0.0 0.0 0.0 10.0 0.0 0.0 0.0 10.0" Properties=species:S:1:pos:R:3:forces:R:3 energy=-156.07480189263 free_energy=-156.07480189263 stress="-0.0097924852700634 -2.1112055007514e-19 0.0027796931588923 -2.1112055007514e-19 -0.00020860003194343 -2.8330044424331e-20 0.0027796931588923 -2.8330044424331e-20 0.0021908513595169" pbc="T T T"
O        4.60765938       5.00000000       4.58601804     -12.16962200      -0.00000000       6.39906436
H        4.60765938       5.00000000       5.61935137      -0.22647394       0.00000000      -2.85011960
H        5.39234062       5.00000000       4.38064863      12.39609595       0.00000000      -3.54894475
3
Lattice="10.0 0.0 0.0 0.0 10.0 0.0 0.0 0.0 10.0" Properties=species:S:1:pos:R:3:forces:R:3 energy=-156.07810558468 free_energy=-156.07810558468 stress="-0.0097057065147299 -9.1890811953232e-20 0.0028655710113856 -9.1890811953232e-20 -0.00020894203370808 -8.2065543792486e-20 0.0028655710113856 -8.2065543792486e-20 0.0021432328258685" pbc="T T T"
O        4.60929959       5.00000000       4.59209223     -12.16030557      -0.00000000       6.54215996
H        4.60929959       5.00000000       5.62542556      -0.17658854       0.00000000      -2.86841792
H        5.39070041       5.00000000       4.37457444      12.33689411       0.00000000      -3.67374203
3
Lattice="10.0 0.0 0.0 0.0 10.0 0.0 0.0 0.0 10.0" Properties=species:S:1:pos:R:3:forces:R:3 energy=-156.82675906856 free_energy=-156.82675906856 stress="-0.0018242218835175 -1.9661991246255e-19 0.00053107936825952 -1.9661991246255e-19 -0.00020170559946147 -3.3566769366541e-20 0.00053107936825952 -3.3566769366541e-20 0.002755394147761" pbc="T T T"
O        4.55577898       5.00000000       4.60699070      -1.92731265      -0.00000000       3.42074065
H        4.55577898       5.00000000       5.64032404      -0.04362527      -0.00000000      -2.81871526
H        5.44422102       5.00000000       4.35967596       1.97093792       0.00000000      -0.60202539
3
Lattice="10.0 0.0 0.0 0.0 10.0 0.0 0.0 0.0 10.0" Properties=species:S:1:pos:R:3:forces:R:3 energy=-154.43198154502 free_energy=-154.43198154502 stress="-0.0098055735293177 -3.0665045344821e-20 0.0030289614756891 -3.0665045344821e-20 -0.00022699495534394 -1.7081281934099e-19 0.0030289614756891 -1.7081281934099e-19 -0.017893365682592" pbc="T T T"
O        4.60537625       5.00000000       4.71574977     -11.37713889      -0.00000000     -18.86401340
H        4.60537625       5.00000000       5.47130533      -0.95594345       0.00000000      22.70742150
H        5.39462375       5.00000000       4.52869467      12.33308234       0.00000000      -3.84340810
3
Lattice="10.0 0.0 0.0 0.0 10.0 0.0 0.0 0.0 10.0" Properties=species:S:1:pos:R:3:forces:R:3 energy=-156.12014143727 free_energy=-156.12014143727 stress="0.0040344812210032 -2.0948524575553e-20 -0.001104190800209 -2.0948524575553e-20 -0.00018885399714514 -1.1524702624818e-19 -0.001104190800209 -1.1524702624818e-19 0.0059383140380727" pbc="T T T"
O        4.47122101       5.00000000       4.55744092       3.81164816      -0.00000000       3.90952406
H        4.47122101       5.00000000       5.70188536       0.08057591       0.00000000      -4.95164832
H        5.52877899       5.00000000       4.29811464      -3.89222408       0.00000000       1.04212426
3
Lattice="10.0 0.0 0.0 0.0 10.0 0.0 0.0 0.0 10.0" Properties=species:S:1:pos:R:3:forces:R:3 energy=-152.81042041094 free_energy=-152.81042041094 stress="-0.0096159461139727 -9.1152485417279e-20 0.0032850594140858 -9.1152485417279e-20 -0.00023191967981844 8.202988005729e-20 0.0032850594140858 8.202988005729e-20 -0.0271331758333" pbc="T T T"
O        4.60846771       5.00000000       4.75572498     -11.17197251      -0.00000000     -33.28602533
H        4.60846771       5.00000000       5.45572498      -1.01365563      -0.00000000      37.48657015
H        5.39153229       5.00000000       4.54427502      12.18562813       0.00000000      -4.20054482
3
Lattice="10.0 0.0 0.0 0.0 10.0 0.0 0.0 0.0 10.0" Properties=species:S:1:pos:R:3:forces:R:3 energy=-156.40857605617 free_energy=-156.40857605617 stress="0.00061297796076715 2.0932289048142e-19 -0.00014325867833303 2.0932289048142e-19 -0.00019354181614465 -2.1127783209969e-19 -0.00014325867833303 -2.1127783209969e-19 0.0057191630618385" pbc="T T T"
O        4.52428917       5.00000000       4.54052331       0.74791590      -0.00000000       4.82920253
H        4.52428917       5.00000000       5.68496776      -0.01960035       0.00000000      -4.97687928
H        5.47571083       5.00000000       4.31503224      -0.72831555      -0.00000000       0.14767676
3
Lattice="10.0 0.0 0.0 0.0 10.0 0.0 0.0 0.0 10.0" Properties=species:S:1:pos:R:3:forces:R:3 energy=-156.66219543348 free_energy=-156.66219543348 stress="0.0040855508675874 -5.4959648846483e-20 -0.001106212272395 -5.4959648846483e-20 -0.00019610892622097 -4.5910856626103e-20 -0.001106212272395 -4.5910856626103e-20 0.0010563068426612" pbc="T T T"
O        4.47329616       5.00000000       4.64896181       3.94730106       0.00000000      -0.26492329
H        4.47329616       5.00000000       5.62673959       0.01241266      -0.00000000      -0.78347781
H        5.52670384       5.00000000       4.37326041      -3.95971372      -0.00000000       1.04840110
3
Lattice="10.0 0.0 0.0 0.0 10.0 0.0 0.0 0.0 10.0" Properties=species:S:1:pos:R:3:forces:R:3 energy=-156.14792365171 free_energy=-156.14792365171 stress="-0.0017336099764165 -1.9210283963706e-19 0.00085309118700383 -1.9210283963706e-19 -0.00021400612511759 -1.8384797012727e-19 0.00085309118700383 -1.8384797012727e-19 -0.010676175286889" pbc="T T T"
O        4.55131820       5.00000000       4.70078398      -1.28015252      -0.00000000     -11.93426525
H        4.55131820       5.00000000       5.51189510      -0.56755245       0.00000000      12.88905741
H        5.44868180       5.00000000       4.48810490       1.84770497       0.00000000      -0.95479216
3
Lattice="10.0 0.0 0.0 0.0 10.0 0.0 0.0 0.0 10.0" Properties=species:S:1:pos:R:3:forces:R:3 energy=-156.46118936574 free_energy=-156.46118936574 stress="-0.0050577240246876 -1.5825312763212e-19 0.0017143735789895 -1.5825312763212e-19 -0.0002141415488801 1.8659713063058e-19 0.0017143735789895 1.8659713063058e-19 -0.005965698503615" pbc="T T T"
O        4.58253929       5.00000000       4.68287480      -5.59850424      -0.00000000      -4.25234397
H        4.58253929       5.00000000       5.54954147      -0.37633868      -0.00000000       6.31100716
H        5.41746071       5.00000000       4.45045853       5.97484291       0.00000000      -2.05866319
3
Lattice="10.0 0.0 0.0 0.0 10.0 0.0 0.0 0.0 10.0" Properties=species:S:1:pos:R:3:forces:R:3 energy=-154.90977574081 free_energy=-154.90977574081 stress="0.0041998915908224 -2.8941906068282e-20 -0.0010024186014546 -2.8941906068282e-20 -0.00021082815010714 -1.3038761602277e-19 -0.0010024186014546 -1.3038761602277e-19 -0.016857755446366" pbc="T T T"
O        4.47549808       5.00000000       4.76822731       4.35121064      -0.00000000     -23.63562301
H        4.47549808       5.00000000       5.52378287      -0.25787676       0.00000000      22.68143414
H        5.52450192       5.00000000       4.47621713      -4.09333388      -0.00000000       0.95418887
3
Lattice="10.0 0.0 0.0 0.0 10.0 0.0 0.0 0.0 10.0" Properties=species:S:1:pos:R:3:forces:R:3 energy=-155.09650611738 free_energy=-155.09650611738 stress="0.0027742923408819 -5.1433416592389e-20 -0.0002934099713008 -5.1433416592389e-20 -0.00021232554287725 -1.3749035375738e-19 -0.0002934099713008 -1.3749035375738e-19 -0.017098742824559" pbc="T T T"
O        4.49726015       5.00000000       4.74137376       3.36210268       0.00000000     -23.00536573
H        4.49726015       5.00000000       5.49692931      -0.51230611       0.00000000      22.71557710
H        5.50273985       5.00000000       4.50307069      -2.84979657       0.00000000       0.28978863
3
Lattice="10.0 0.0 0.0 0.0 10.0 0.0 0.0 0.0 10.0" Properties=species:S:1:pos:R:3:forces:R:3 energy=-155.84653016658 free_energy=-155.84653016658 stress="-0.0053896547447675 -1.2215173199453e-19 0.0013271078062477 -1.2215173199453e-19 -0.00019828897648776 8.5418705535712e-21 0.0013271078062477 8.5418705535712e-21 0.0063986659616256" pbc="T T T"
O        4.57758473       5.00000000       4.49665980      -6.20703827      -0.00000000       7.18128011
H        4.57758473       5.00000000       5.69665980      -0.09162839      -0.00000000      -5.60483211
H        5.42241527       5.00000000       4.30334020       6.29866666       0.00000000      -1.57644800
3
Lattice="10.0 0.0 0.0 0.0 10.0 0.0 0.0 0.0 10.0" Properties=species:S:1:pos:R:3:forces:R:3 energy=-156.3095657548 free_energy=-156.3095657548 stress="0.0052887415267405 1.4720196493553e-21 -0.0012995664623146 1.4720196493553e-21 -0.00019087672117011 -6.6693829342591e-20 -0.0012995664623146 -6.6693829342591e-20 0.0030911081461818" pbc="T T T"
O        4.44320210       5.00000000       4.61529686       4.79915322      -0.00000000       1.52737218
H        4.44320210       5.00000000       5.64863019       0.02343507       0.00000000      -2.69253450
H        5.55679790       5.00000000       4.35136981      -4.82258829      -0.00000000       1.16516233
3
Lattice="10.0 0.0 0.0 0.0 10.0 0.0 0.0 0.0 10.0" Properties=species:S:1:pos:R:3:forces:R:3 energy=-156.18852191738 free_energy=-156.18852191738 stress="0.0008266453577727 2.2295515154161e-19 -3.4772076771096e-05 2.2295515154161e-19 -0.0002115951226275 -2.9376814149415e-19 -3.4772076771096e-05 -2.9376814149415e-19 -0.010411216730185" pbc="T T T"
O        4.53004984       5.00000000       4.72920049       1.24704795      -0.00000000     -12.87519877
H        4.53004984       5.00000000       5.54031160      -0.28018837       0.00000000      12.84122313
H        5.46995016       5.00000000       4.45968840      -0.96685958      -0.00000000       0.03397565
3
Lattice="10.0 0.0 0.0 0.0 10.0 0.0 0.0 0.0 10.0" Properties=species:S:1:pos:R:3:forces:R:3 energy=-153.52986773126 free_energy=-153.52986773126 stress="-0.024883384582986 -9.2016992233114e-20 0.0063235685525772 -9.2016992233114e-20 -0.00022308484085565 1.5016958637452e-19 0.0063235685525772 1.5016958637452e-19 -0.0033674186107247" pbc="T T T"
O        4.65881844       5.00000000       4.61696027     -35.64926062      -0.00000000       7.24734549
H        4.65881844       5.00000000       5.53918249      -0.70103087      -0.00000000       2.02568239
H        5.34118156       5.00000000       4.46081751      36.35029149       0.00000000      -9.27302787
3
Lattice="10.0 0.0 0.0 0.0 10.0 0.0 0.0 0.0 10.0" Properties=species:S:1:pos:R:3:forces:R:3 energy=-155.21049304142 free_energy=-155.21049304142 stress="0.00085321486224028 1.1096837444687e-19 0.00016925143042697 1.1096837444687e-19 -0.00021529555055212 -1.906609305138e-19 0.00016925143042697 -1.906609305138e-19 -0.017186711915223" pbc="T T T"
O        4.52609549       5.00000000       4.74233409       1.52870284      -0.00000000     -22.50021813
H        4.52609549       5.00000000       5.49788965      -0.54001800       0.00000000      22.68175653
H        5.47390451       5.00000000       4.50211035      -0.98868484      -0.00000000      -0.18153840
3
Lattice="10.0 0.0 0.0 0.0 10.0 0.0 0.0 0.0 10.0" Properties=species:S:1:pos:R:3:forces:R:3 energy=-155.82128372316 free_energy=-155.82128372316 stress="0.0039390200295067 4.0275120779501e-20 -0.0013507508265409 4.0275120779501e-20 -0.00018827983446385 -3.0936049797875e-20 -0.0013507508265409 -3.0936049797875e-20 0.0070792990952323" pbc="T T T"
O        4.47549808       5.00000000       4.54600509       3.64266022      -0.00000000       4.29536020
H        4.47549808       5.00000000       5.74600509       0.19020851      -0.00000000      -5.58111637
H        5.52450192       5.00000000       4.25399491      -3.83286873      -0.00000000       1.28575618
3
Lattice="10.0 0.0 0.0 0.0 10.0 0.0 0.0 0.0 10.0" Properties=species:S:1:pos:R:3:forces:R:3 energy=-155.31480708906 free_energy=-155.31480708906 stress="-0.010105938151329 -1.2670507905347e-19 0.0023526350210771 -1.2670507905347e-19 -0.00020183549614363 2.125311813742e-20 0.0023526350210771 2.125311813742e-20 0.0061907527965516" pbc="T T T"
O        4.60330681       5.00000000       4.48431974     -12.47433417      -0.00000000       8.57687684
H        4.60330681       5.00000000       5.68431974      -0.18188507      -0.00000000      -5.60473802
H        5.39669319       5.00000000       4.31568026      12.65621924       0.00000000      -2.97213882
3
Lattice="10.0 0.0 0.0 0.0 10.0 0.0 0.0 0.0 10.0" Properties=species:S:1:pos:R:3:forces:R:3 energy=-156.66104390586 free_energy=-156.66104390586 stress="-0.0018027955478956 -1.607270573112e-19 0.00083352410154059 -1.607270573112e-19 -0.00020963193887008 1.1330678845195e-19 0.00083352410154059 1.1330678845195e-19 -0.0057662884539475" pbc="T T T"
O        4.54896527       5.00000000       4.66253706      -1.37809603      -0.00000000      -5.48830325
H        4.54896527       5.00000000       5.52920372      -0.53751611      -0.00000000       6.41647198
H        5.45103473       5.00000000       4.47079628       1.91561214       0.00000000      -0.92816874
3
Lattice="10.0 0.0 0.0 0.0 10.0 0.0 0.0 0.0 10.0" Properties=species:S:1:pos:R:3:forces:R:3 energy=-156.56092009301 free_energy=-156.56092009301 stress="0.0041293062121381 -1.7681069128274e-21 -0.00085810594284409 -1.7681069128274e-21 -0.00019234902501665 -6.6967987524205e-20 -0.00085810594284409 -6.6967987524205e-20 0.0029694216934353" pbc="T T T"
O        4.46834705       5.00000000       4.60065723       4.03293761      -0.00000000       1.89141869
H        4.46834705       5.00000000       5.63399056      -0.07093564       0.00000000      -2.69648496
H        5.53165295       5.00000000       4.36600944      -3.96200197      -0.00000000       0.80506627
3
Lattice="10.0 0.0 0.0 0.0 10.0 0.0 0.0 0.0 10.0" Properties=species:S:1:pos:R:3:forces:R:3 energy=-156.11561264489 free_energy=-156.11561264489 stress="0.0039588248677874 -1.7981747932735e-20 -0.0013255297219473 -1.7981747932735e-20 -0.00018994781441159 -1.0182101706504e-19 -0.0013255297219473 -1.0182101706504e-19 0.0060631414666077" pbc="T T T"
O        4.47549808       5.00000000       4.57378287       3.67992112       0.00000000       3.70935391
H        4.47549808       5.00000000       5.71822731       0.17256302       0.00000000      -4.97112390
H        5.52450192       5.00000000       4.28177269      -3.85248414      -0.00000000       1.26176999
3
Lattice="10.0 0.0 0.0 0.0 10.0 0.0 0.0 0.0 10.0" Properties=species:S:1:pos:R:3:forces:R:3 energy=-154.34681090317 free_energy=-154.34681090317 stress="-0.016233273140041 -1.4105026472961e-19 0.0041424796039009 -1.4105026472961e-19 -0.00020681896467199 -7.1433721510121e-21 0.0041424796039009 -7.1433721510121e-21 0.0057243422471839" pbc="T T T"
O        4.63309213       5.00000000       4.48997034     -21.88389197       0.00000000      11.29740335
H        4.63309213       5.00000000       5.68997034      -0.14828194      -0.00000000      -5.64468413
H        5.36690787       5.00000000       4.31002966      22.03217391       0.00000000      -5.65271923
3
Lattice="10.0 0.0 0.0 0.0 10.0 0.0 0.0 0.0 10.0" Properties=species:S:1:pos:R:3:forces:R:3 energy=-156.12071760277 free_energy=-156.12071760277 stress="0.0052656285040883 -2.4846867578306e-21 -0.0013352852188399 -2.4846867578306e-21 -0.00018858882867255 -1.6036303764945e-19 -0.0013352852188399 -1.6036303764945e-19 0.0046980033103031" pbc="T T T"
O        4.44320210       5.00000000       4.58751908       4.74058182       0.00000000       2.82514508
H        4.44320210       5.00000000       5.67640797       0.06017463       0.00000000      -4.02232437
H        5.55679790       5.00000000       4.32359203      -4.80075644      -0.00000000       1.19717929
3
Lattice="10.0 0.0 0.0 0.0 10.0 0.0 0.0 0.0 10.0" Properties=species:S:1:pos:R:3:forces:R:3 energy=-152.82122201992 free_energy=-152.82122201992 stress="-0.024140979762982 -9.7549112660764e-20 0.0075572926779913 -9.7549112660764e-20 -0.00023190912324135 -2.0423734988738e-19 0.0075572926779913 -2.0423734988738e-19 -0.012608047766232" pbc="T T T"
O        4.66355841       5.00000000       4.69091752     -34.93619913      -0.00000000      -1.59723754
H        4.66355841       5.00000000       5.50202863      -0.81276634       0.00000000      12.83356852
H        5.33644159       5.00000000       4.49797137      35.74896548       0.00000000     -11.23633099
3
Lattice="10.0 0.0 0.0 0.0 10.0 0.0 0.0 0.0 10.0" Properties=species:S:1:pos:R:3:forces:R:3 energy=-156.59828582719 free_energy=-156.59828582719 stress="-0.0052152556309997 1.5382402556173e-19 0.0015102918795862 1.5382402556173e-19 -0.00020472284545722 -1.6819604436683e-19 0.0015102918795862 -1.6819604436683e-19 0.0025066841776114" pbc="T T T"
O        4.58078674       5.00000000       4.59305124      -5.98120978      -0.00000000       4.63429702
H        4.58078674       5.00000000       5.62638457      -0.15837059       0.00000000      -2.82742635
H        5.41921326       5.00000000       4.37361543       6.13958037      -0.00000000      -1.80687068
3
Lattice="10.0 0.0 0.0 0.0 10.0 0.0 0.0 0.0 10.0" Properties=species:S:1:pos:R:3:forces:R:3 energy=-155.82903633923 free_energy=-155.82903633923 stress="0.0040809657213536 3.5065299047747e-20 -0.00090509735850132 3.5065299047747e-20 -0.00018614127153264 -1.5358003599227e-20 -0.00090509735850132 -1.5358003599227e-20 0.006844771556856" pbc="T T T"
O        4.46745297       5.00000000       4.51319637       3.89158267       0.00000000       4.70024042
H        4.46745297       5.00000000       5.71319637       0.01541811      -0.00000000      -5.54786115
H        5.53254703       5.00000000       4.28680363      -3.90700077      -0.00000000       0.84762073
3
Lattice="10.0 0.0 0.0 0.0 10.0 0.0 0.0 0.0 10.0" Properties=species:S:1:pos:R:3:forces:R:3 energy=-155.20021633146 free_energy=-155.20021633146 stress="-0.01576358200601 -1.152250530361e-19 0.0048841888858247 -1.152250530361e-19 -0.00021897551075905 1.2499632272058e-19 0.0048841888858247 1.2499632272058e-19 -0.0032214317972682" pbc="T T T"
O        4.63685669       5.00000000       4.64301856     -21.18935234      -0.00000000       4.79044538
H        4.63685669       5.00000000       5.56524078      -0.41666473      -0.00000000       1.94077569
H        5.36314331       5.00000000       4.43475922      21.60601707       0.00000000      -6.73122108
3
Lattice="10.0 0.0 0.0 0.0 10.0 0.0 0.0 0.0 10.0" Properties=species:S:1:pos:R:3:forces:R:3 energy=-156.403961578 free_energy=-156.403961578 stress="-0.0051790447822125 -2.4510981043033e-21 0.0014917688017388 -2.4510981043033e-21 -0.00020322068837144 -1.7162765707812e-19 0.0014917688017388 -1.7162765707812e-19 0.0040939877316354" pbc="T T T"
O        4.58345327       5.00000000       4.57499841      -6.11018389      -0.00000000       5.96094067
H        4.58345327       5.00000000       5.66388730      -0.02512903       0.00000000      -4.16467075
H        5.41654673       5.00000000       4.33611270       6.13531292      -0.00000000      -1.79626992
3
Lattice="10.0 0.0 0.0 0.0 10.0 0.0 0.0 0.0 10.0" Properties=species:S:1:pos:R:3:forces:R:3 energy=-156.81697720302 free_energy=-156.81697720302 stress="0.0026898036094079 -4.6125095428656e-20 -0.0003266040719856 -4.6125095428656e-20 -0.00020014264935994 8.840890507778e-20 -0.0003266040719856 8.840890507778e-20 -0.0019129440705973" pbc="T T T"
O        4.49462374       5.00000000       4.64630993       3.03317871      -0.00000000      -2.45405182
H        4.49462374       5.00000000       5.56853215      -0.28646787      -0.00000000       2.13306107
H        5.50537626       5.00000000       4.43146785      -2.74671084      -0.00000000       0.32099075
3
Lattice="10.0 0.0 0.0 0.0 10.0 0.0 0.0 0.0 10.0" Properties=species:S:1:pos:R:3:forces:R:3 energy=-156.56166248423 free_energy=-156.56166248423 stress="0.0025723015407373 -3.3793977120635e-20 -0.00061308898014239 -3.3793977120635e-20 -0.00019280842265227 -1.298641380391e-19 -0.00061308898014239 -1.298641380391e-19 0.0045540102873665" pbc="T T T"
O        4.49726015       5.00000000       4.57470709       2.65832005      -0.00000000       3.44698049
H        4.49726015       5.00000000       5.66359598      -0.01671702       0.00000000      -4.05462112
H        5.50273985       5.00000000       4.33640402      -2.64160302      -0.00000000       0.60764063
3
Lattice="10.0 0.0 0.0 0.0 10.0 0.0 0.0 0.0 10.0" Properties=species:S:1:pos:R:3:forces:R:3 energy=-153.5391173295 free_energy=-153.5391173295 stress="-0.0016774878165265 -1.9217035468994e-19 0.00098511461496099 -1.9217035468994e-19 -0.00022308726894733 6.8481557081914e-20 0.00098511461496099 6.8481557081914e-20 -0.026479206401692" pbc="T T T"
O        4.55215657       5.00000000       4.75981674      -0.93684580      -0.00000000     -36.37687084
H        4.55215657       5.00000000       5.45981674      -0.84916647      -0.00000000      37.48069252
H        5.44784343       5.00000000       4.54018326       1.78601226       0.00000000      -1.10382168
3
Lattice="10.0 0.0 0.0 0.0 10.0 0.0 0.0 0.0 10.0" Properties=species:S:1:pos:R:3:forces:R:3 energy=-155.57927255198 free_energy=-155.57927255198 stress="0.005276781303609 7.0939421534708e-20 -0.0012626032011297 7.0939421534708e-20 -0.00018435499664377 2.1308337965483e-20 -0.0012626032011297 2.1308337965483e-20 0.0069356713398923" pbc="T T T"
O        4.44122190       5.00000000       4.52330981       4.72676266      -0.00000000       4.41916651
H        4.44122190       5.00000000       5.72330981       0.06506966      -0.00000000      -5.54687706
H        5.55877810       5.00000000       4.27669019      -4.79183233       0.00000000       1.12771055
3
Lattice="10.0 0.0 0.0 0.0 10.0 0.0 0.0 0.0 10.0" Properties=species:S:1:pos:R:3:forces:R:3 energy=-156.17149896593 free_energy=-156.17149896593 stress="-0.0099281401563795 -1.8298642220897e-19 0.0026673102917257 -1.8298642220897e-19 -0.00021071624302233 -8.6432349184072e-21 0.0026673102917257 -8.6432349184072e-21 0.00020077415007827" pbc="T T T"
O        4.60466263       5.00000000       4.60157477     -12.05386759      -0.00000000       4.24575191
H        4.60466263       5.00000000       5.57935255      -0.41930489      -0.00000000      -0.86598273
H        5.39533737       5.00000000       4.42064745      12.47317249       0.00000000      -3.37976918
3
Lattice="10.0 0.0 0.0 0.0 10.0 0.0 0.0 0.0 10.0" Properties=species:S:1:pos:R:3:forces:R:3 energy=-153.46749145223 free_energy=-153.46749145223 stress="0.0027765208627428 -1.6780467170859e-20 -0.0004665302384768 -1.6780467170859e-20 -0.00021721988952805 1.1234887941374e-19 -0.0004665302384768 1.1234887941374e-19 -0.026073951811512" pbc="T T T"
O        4.50225838       5.00000000       4.78855585       3.35922300       0.00000000     -37.90888385
H        4.50225838       5.00000000       5.48855585      -0.47757880      -0.00000000      37.44217382
H        5.49774162       5.00000000       4.51144415      -2.88164420      -0.00000000       0.46671003
3
Lattice="10.0 0.0 0.0 0.0 10.0 0.0 0.0 0.0 10.0" Properties=species:S:1:pos:R:3:forces:R:3 energy=-156.67099902044 free_energy=-156.67099902044 stress="-0.0017648647209948 -8.8552155884432e-20 0.00078307896125815 -8.8552155884432e-20 -0.00020994338120255 7.2273491760715e-20 0.00078307896125815 7.2273491760715e-20 -0.0057411782694222" pbc="T T T"
O        4.55131820       5.00000000       4.67300621      -1.44221051      -0.00000000      -5.50801378
H        4.55131820       5.00000000       5.53967287      -0.44142470      -0.00000000       6.38483068
H        5.44868180       5.00000000       4.46032713       1.88363521       0.00000000      -0.87681690
3
Lattice="10.0 0.0 0.0 0.0 10.0 0.0 0.0 0.0 10.0" Properties=species:S:1:pos:R:3:forces:R:3 energy=-156.85366080108 free_energy=-156.85366080108 stress="0.00067382437169116 1.1728443332768e-19 -5.9457912202829e-05 1.1728443332768e-19 -0.00019764754431205 -4.7649887121619e-20 -5.9457912202829e-05 -4.7649887121619e-20 0.0028470141947562" pbc="T T T"
O        4.52428917       5.00000000       4.59607887       0.90868946       0.00000000       2.69434567
H        4.52428917       5.00000000       5.62941220      -0.11641969      -0.00000000      -2.75387503
H        5.47571083       5.00000000       4.37058780      -0.79226977      -0.00000000       0.05952936
3
Lattice="10.0 0.0 0.0 0.0 10.0 0.0 0.0 0.0 10.0" Properties=species:S:1:pos:R:3:forces:R:3 energy=-156.11392469227 free_energy=-156.11392469227 stress="0.0062819944818582 2.2237800753322e-20 -0.0014491851056734 2.2237800753322e-20 -0.00019163150139246 1.8856732816015e-20 -0.0014491851056734 1.8856732816015e-20 0.0010373952445391" pbc="T T T"
O        4.41511732       5.00000000       4.64494776       5.44904323       0.00000000      -0.51688313
H        4.41511732       5.00000000       5.62272554      -0.00962268      -0.00000000      -0.72021705
H        5.58488268       5.00000000       4.37727446      -5.43942055      -0.00000000       1.23710018
3
Lattice="10.0 0.0 0.0 0.0 10.0 0.0 0.0 0.0 10.0" Properties=species:S:1:pos:R:3:forces:R:3 energy=-154.65121163192 free_energy=-154.65121163192 stress="0.0053227327331172 4.539326128036e-20 -0.001442173906564 4.539326128036e-20 -0.00020923928329827 -1.6332533705855e-19 -0.001442173906564 -1.6332533705855e-19 -0.016727560641775" pbc="T T T"
O        4.44994470       5.00000000       4.77994804       5.07135838      -0.00000000     -23.99758552
H        4.44994470       5.00000000       5.53550360      -0.14908004       0.00000000      22.68794391
H        5.55005530       5.00000000       4.46449640      -4.92227834      -0.00000000       1.30964161
3
Lattice="10.0 0.0 0.0 0.0 10.0 0.0 0.0 0.0 10.0" Properties=species:S:1:pos:R:3:forces:R:3 energy=-156.68143518632 free_energy=-156.68143518632 stress="-0.0051189999028334 -1.1466320518615e-19 0.0016376469908536 -1.1466320518615e-19 -0.00021047709380115 1.4005329831451e-19 0.0016376469908536 1.4005329831451e-19 -0.0023020015285654" pbc="T T T"
O        4.58165043       5.00000000       4.65185531      -5.73893452      -0.00000000      -0.03242838
H        4.58165043       5.00000000       5.57407753      -0.29740873      -0.00000000       1.99510314
H        5.41834957       5.00000000       4.42592247       6.03634325       0.00000000      -1.96267477
3
Lattice="10.0 0.0 0.0 0.0 10.0 0.0 0.0 0.0 10.0" Properties=species:S:1:pos:R:3:forces:R:3 energy=-156.37397335137 free_energy=-156.37397335137 stress="0.0053627899170001 1.076345222202e-19 -0.0011461154092089 1.076345222202e-19 -0.00019635446698051 8.5174455275449e-20 -0.0011461154092089 8.5174455275449e-20 -0.0017295547687956" pbc="T T T"
O        4.44219522       5.00000000       4.66652940       4.99412175       0.00000000      -3.18305513
H        4.44219522       5.00000000       5.58875162      -0.11111678      -0.00000000       2.15745889
H        5.55780478       5.00000000       4.41124838      -4.88300497      -0.00000000       1.02559624
3
Lattice="10.0 0.0 0.0 0.0 10.0 0.0 0.0 0.0 10.0" Properties=species:S:1:pos:R:3:forces:R:3 energy=-155.19973382168 free_energy=-155.19973382168 stress="-0.0016248053874187 -1.7461059059609e-19 0.00082779671273964 -1.7461059059609e-19 -0.0002189143726571 -1.4036373652673e-19 0.00082779671273964 -1.4036373652673e-19 -0.017339280856471" pbc="T T T"
O        4.55675155       5.00000000       4.74932167      -1.23763591      -0.00000000     -21.68877621
H        4.55675155       5.00000000       5.50487723      -0.50949913       0.00000000      22.62669933
H        5.44324845       5.00000000       4.49512277       1.74713504       0.00000000      -0.93792312
3
Lattice="10.0 0.0 0.0 0.0 10.0 0.0 0.0 0.0 10.0" Properties=species:S:1:pos:R:3:forces:R:3 energy=-156.0702468054 free_energy=-156.0702468054 stress="0.0027383659992294 -5.7227183861e-20 -0.00040557602371963 -5.7227183861e-20 -0.00020822393838226 -2.3725517746416e-19 -0.00040557602371963 -2.3725517746416e-19 -0.010384098995412" pbc="T T T"
O        4.49819953       5.00000000       4.71749212       3.17383316      -0.00000000     -13.31610527
H        4.49819953       5.00000000       5.52860323      -0.35626230       0.00000000      12.91402325
H        5.50180047       5.00000000       4.47139677      -2.81757086       0.00000000       0.40208202
3
Lattice="10.0 0.0 0.0 0.0 10.0 0.0 0.0 0.0 10.0" Properties=species:S:1:pos:R:3:forces:R:3 energy=-153.3042696184 free_energy=-153.3042696184 stress="-0.0051659479119366 -1.1978279548608e-19 0.0019046583573906 -1.1978279548608e-19 -0.00022723909189958 7.7677171432309e-20 0.0019046583573906 7.7677171432309e-20 -0.026705546570635" pbc="T T T"
O        4.57758473       5.00000000       4.74665980      -4.97024023      -0.00000000     -35.25861323
H        4.57758473       5.00000000       5.44665980      -1.05770663      -0.00000000      37.51797303
H        5.42241527       5.00000000       4.55334020       6.02794687       0.00000000      -2.25935979
3
Lattice="10.0 0.0 0.0 0.0 10.0 0.0 0.0 0.0 10.0" Properties=species:S:1:pos:R:3:forces:R:3 energy=-156.11338515647 free_energy=-156.11338515647 stress="0.00058382602940359 1.014990398972e-19 -0.00024028530605599 1.014990398972e-19 -0.00019240652945137 -1.0529678435728e-19 -0.00024028530605599 -1.0529678435728e-19 0.0067667657728321" pbc="T T T"
O        4.52609549       5.00000000       4.52011187       0.64237667       0.00000000       5.34229134
H        4.52609549       5.00000000       5.72011187       0.05830353      -0.00000000      -5.59297437
H        5.47390451       5.00000000       4.27988813      -0.70068020      -0.00000000       0.25068304
3
Lattice="10.0 0.0 0.0 0.0 10.0 0.0 0.0 0.0 10.0" Properties=species:S:1:pos:R:3:forces:R:3 energy=-156.30477726973 free_energy=-156.30477726973 stress="0.002474679755678 8.4227397335922e-20 -0.00091922796063224 8.4227397335922e-20 -0.00019247920181515 -1.3586405133157e-19 -0.00091922796063224 -1.3586405133157e-19 0.0059807600918014" pbc="T T T"
O        4.50334812       5.00000000       4.57019041       2.41611218       0.00000000       4.06914031
H        4.50334812       5.00000000       5.71463486       0.15967364       0.00000000      -4.99258493
H        5.49665188       5.00000000       4.28536514      -2.57578582      -0.00000000       0.92344462
3
Lattice="10.0 0.0 0.0 0.0 10.0 0.0 0.0 0.0 10.0" Properties=species:S:1:pos:R:3:forces:R:3 energy=-156.1193180096 free_energy=-156.1193180096 stress="0.0040168373484279 -2.2767857897435e-20 -0.0011604095207336 -2.2767857897435e-20 -0.00018911776567088 -1.1827418362156e-19 -0.0011604095207336 -1.1827418362156e-19 0.0059686906081873" pbc="T T T"
O        4.47224270       5.00000000       4.56153872       3.77938649      -0.00000000       3.85915414
H        4.47224270       5.00000000       5.70598317       0.10380951       0.00000000      -4.95659466
H        5.52775730       5.00000000       4.29401683      -3.88319600       0.00000000       1.09744052
3
Lattice="10.0 0.0 0.0 0.0 10.0 0.0 0.0 0.0 10.0" Properties=species:S:1:pos:R:3:forces:R:3 energy=-156.95461348294 free_energy=-156.95461348294 stress="0.00070869221323849 1.5797636050393e-19 2.4769537773603e-05 1.5797636050393e-19 -0.0002000612975752 -9.4728260289057e-20 2.4769537773603e-05 -9.4728260289057e-20 0.00076014667721793" pbc="T T T"
O        4.52342893       5.00000000       4.62016320       1.03854493       0.00000000       0.82830902
H        4.52342893       5.00000000       5.59794097      -0.21074977      -0.00000000      -0.79932985
H        5.47657107       5.00000000       4.40205903      -0.82779516      -0.00000000      -0.02897917
3
Lattice="10.0 0.0 0.0 0.0 10.0 0.0 0.0 0.0 10.0" Properties=species:S:1:pos:R:3:forces:R:3 energy=-153.24560904131 free_energy=-153.24560904131 stress="-0.025110158224142 -1.8984353590622e-19 0.0057828976807544 -1.8984353590622e-19 -0.00021405786159791 -1.3104001221221e-19 0.0057828976807544 -1.3104001221221e-19 0.0032234968433981" pbc="T T T"
O        4.65764834       5.00000000       4.52832465     -36.14321062      -0.00000000      12.59015701
H        4.65764834       5.00000000       5.61721354      -0.42280105       0.00000000      -4.13748860
H        5.34235166       5.00000000       4.38278646      36.56601167       0.00000000      -8.45266841
3
Lattice="10.0 0.0 0.0 0.0 10.0 0.0 0.0 0.0 10.0" Properties=species:S:1:pos:R:3:forces:R:3 energy=-156.11382107251 free_energy=-156.11382107251 stress="0.00058700520879751 1.9947385450058e-19 -0.00020922484888854 1.9947385450058e-19 -0.00019215163585348 -3.9655268092048e-20 -0.00020922484888854 -3.9655268092048e-20 0.0067492876812715" pbc="T T T"
O        4.52517805       5.00000000       4.51643221       0.66613987       0.00000000       5.37043045
H        4.52517805       5.00000000       5.71643221       0.03648433      -0.00000000      -5.58790653
H        5.47482195       5.00000000       4.28356779      -0.70262420      -0.00000000       0.21747608
3
Lattice="10.0 0.0 0.0 0.0 10.0 0.0 0.0 0.0 10.0" Properties=species:S:1:pos:R:3:forces:R:3 energy=-156.16330898458 free_energy=-156.16330898458 stress="-0.0016691459280499 -2.0059088229186e-19 0.00077077633290738 -2.0059088229186e-19 -0.00021452547973353 -2.0831747045171e-19 0.00077077633290738 -2.0831747045171e-19 -0.01063625725793" pbc="T T T"
O        4.55577898       5.00000000       4.71810182      -1.39006720      -0.00000000     -11.96143435
H        4.55577898       5.00000000       5.52921293      -0.40422206       0.00000000      12.83318147
H        5.44422102       5.00000000       4.47078707       1.79428925       0.00000000      -0.87174712
3
Lattice="10.0 0.0 0.0 0.0 10.0 0.0 0.0 0.0 10.0" Properties=species:S:1:pos:R:3:forces:R:3 energy=-156.16462951303 free_energy=-156.16462951303 stress="-0.010007212332595 -7.7487423202048e-20 0.0025786367556805 -7.7487423202048e-20 -0.00021051115669132 6.6054481572725e-20 0.0025786367556805 6.6054481572725e-20 0.00023806387375006" pbc="T T T"
O        4.60330681       5.00000000       4.59543085     -12.05496900       0.00000000       4.10186146
H        4.60330681       5.00000000       5.57320863      -0.47535612      -0.00000000      -0.84540082
H        5.39669319       5.00000000       4.42679137      12.53032512       0.00000000      -3.25646064
3
Lattice="10.0 0.0 0.0 0.0 10.0 0.0 0.0 0.0 10.0" Properties=species:S:1:pos:R:3:forces:R:3 energy=-156.16427629762 free_energy=-156.16427629762 stress="0.00080419013563494 8.8219040340964e-20 0.00027776444551195 8.8219040340964e-20 -0.00021046356690779 -2.7987199506194e-19 0.00027776444551195 -2.7987199506194e-19 -0.010570736935883" pbc="T T T"
O        4.52179451       5.00000000       4.69609016       1.50305547      -0.00000000     -12.64263926
H        4.52179451       5.00000000       5.50720127      -0.57524181       0.00000000      12.93606097
H        5.47820549       5.00000000       4.49279873      -0.92781366      -0.00000000      -0.29342171
3
Lattice="10.0 0.0 0.0 0.0 10.0 0.0 0.0 0.0 10.0" Properties=species:S:1:pos:R:3:forces:R:3 energy=-156.14030452841 free_energy=-156.14030452841 stress="-0.0017609592888401 -1.3996344688419e-19 0.00088693981576852 -1.3996344688419e-19 -0.00021384798196937 -1.9470690528501e-19 0.00088693981576852 -1.9470690528501e-19 -0.010689905544122" pbc="T T T"
O        4.54972250       5.00000000       4.69381060      -1.23630822      -0.00000000     -11.92200511
H        4.54972250       5.00000000       5.50492171      -0.63500757       0.00000000      12.91100033
H        5.45027750       5.00000000       4.49507829       1.87131579       0.00000000      -0.98899522
3
Lattice="10.0 0.0 0.0 0.0 10.0 0.0 0.0 0.0 10.0" Properties=species:S:1:pos:R:3:forces:R:3 energy=-154.64516294967 free_energy=-154.64516294967 stress="-0.016212511327394 -1.2141731814804e-19 0.0041912511286943 -1.2141731814804e-19 -0.00020838845801719 -8.5044489847986e-20 0.0041912511286943 -8.5044489847986e-20 0.0047205363518615" pbc="T T T"
O        4.63309213       5.00000000       4.51774812     -21.80071352      -0.00000000      10.77218490
H        4.63309213       5.00000000       5.66219256      -0.20249598       0.00000000      -5.05324681
H        5.36690787       5.00000000       4.33780744      22.00320950       0.00000000      -5.71893809
3
Lattice="10.0 0.0 0.0 0.0 10.0 0.0 0.0 0.0 10.0" Properties=species:S:1:pos:R:3:forces:R:3 energy=-155.86782382972 free_energy=-155.86782382972 stress="0.004252702939041 7.415186973183e-21 -0.0006542164872696 7.415186973183e-21 -0.00020551046253884 -2.1307895428602e-19 -0.0006542164872696 -2.1307895428602e-19 -0.010378524069687" pbc="T T T"
O        4.46834705       5.00000000       4.71176834       4.46184700      -0.00000000     -13.57528519
H        4.46834705       5.00000000       5.52287945      -0.37660239       0.00000000      12.96170247
H        5.53165295       5.00000000       4.47712055      -4.08524461      -0.00000000       0.61358272
3
Lattice="10.0 0.0 0.0 0.0 10.0 0.0 0.0 0.0 10.0" Properties=species:S:1:pos:R:3:forces:R:3 energy=-154.89981905194 free_energy=-154.89981905194 stress="0.0042621772103323 -1.1896060235594e-20 -0.00071374047501255 -1.1896060235594e-20 -0.00021002771817474 -1.4362816990509e-19 -0.00071374047501255 -1.4362816990509e-19 -0.017007596246063" pbc="T T T"
O        4.47023113       5.00000000       4.74777975       4.53506487      -0.00000000     -23.40211515
H        4.47023113       5.00000000       5.50333531      -0.42390379       0.00000000      22.73002536
H        5.52976887       5.00000000       4.49666469      -4.11116108      -0.00000000       0.67208979
3
Lattice="10.0 0.0 0.0 0.0 10.0 0.0 0.0 0.0 10.0" Properties=species:S:1:pos:R:3:forces:R:3 energy=-153.55614873377 free_energy=-153.55614873377 stress="-0.024896752827616 -1.5038207410332e-19 0.006240630644383 -1.5038207410332e-19 -0.0002195735631229 3.8683035307306e-20 0.006240630644383 3.8683035307306e-20 -0.00061412068346431" pbc="T T T"
O        4.65881844       5.00000000       4.58918249     -35.80027375      -0.00000000      10.03633606
H        4.65881844       5.00000000       5.56696027      -0.57287701      -0.00000000      -0.88455191
H        5.34118156       5.00000000       4.43303973      36.37315076       0.00000000      -9.15178415
3
Lattice="10.0 0.0 0.0 0.0 10.0 0.0 0.0 0.0 10.0" Properties=species:S:1:pos:R:3:forces:R:3 energy=-156.14216905504 free_energy=-156.14216905504 stress="0.0053924281291812 1.0050535670729e-19 -0.0010957423645043 1.0050535670729e-19 -0.00019985483683792 -2.3296764510245e-19 -0.0010957423645043 -2.3296764510245e-19 -0.0053667222218154" pbc="T T T"
O        4.44219522       5.00000000       4.69430717       5.09594697      -0.00000000      -7.45879349
H        4.44219522       5.00000000       5.56097384      -0.18453961       0.00000000       6.47828345
H        5.55780478       5.00000000       4.43902616      -4.91140736      -0.00000000       0.98051004
3
Lattice="10.0 0.0 0.0 0.0 10.0 0.0 0.0 0.0 10.0" Properties=species:S:1:pos:R:3:forces:R:3 energy=-155.32099951888 free_energy=-155.32099951888 stress="-0.0099162799323785 -1.8329271532469e-19 0.0025879196123029 -1.8329271532469e-19 -0.00020285310673494 5.8645714142178e-20 0.0025879196123029 5.8645714142178e-20 0.0060854251353868" pbc="T T T"
O        4.60687467       5.00000000       4.49963825     -12.45307494      -0.00000000       8.93679979
H        4.60687467       5.00000000       5.69963825      -0.07632719      -0.00000000      -5.63844157
H        5.39312533       5.00000000       4.30036175      12.52940213       0.00000000      -3.29835822
3
Lattice="10.0 0.0 0.0 0.0 10.0 0.0 0.0 0.0 10.0" Properties=species:S:1:pos:R:3:forces:R:3 energy=-155.87711963021 free_energy=-155.87711963021 stress="0.0041941821579451 -1.9008776855584e-20 -0.00094907968543655 -1.9008776855584e-20 -0.00020635456940049 -2.5024973474485e-19 -0.00094907968543655 -2.5024973474485e-19 -0.010228237895812" pbc="T T T"
O        4.47329616       5.00000000       4.73229515       4.28365613      -0.00000000     -13.81404530
H        4.47329616       5.00000000       5.54340626      -0.21515196       0.00000000      12.91461079
H        5.52670384       5.00000000       4.45659374      -4.06850417      -0.00000000       0.89943451
3
Lattice="10.0 0.0 0.0 0.0 10.0 0.0 0.0 0.0 10.0" Properties=species:S:1:pos:R:3:forces:R:3 energy=-156.18500039375 free_energy=-156.18500039375 stress="-0.0097170081254203 -4.1834304986284e-20 0.0028829836998282 -4.1834304986284e-20 -0.00021135258091452 3.6500385095544e-20 0.0028829836998282 3.6500385095544e-20 9.1987087352681e-05" pbc="T T T"
O        4.60846771       5.00000000       4.61683609     -12.04100459      -0.00000000       4.60491976
H        4.60846771       5.00000000       5.59461387      -0.28338192      -0.00000000      -0.91690115
H        5.39153229       5.00000000       4.40538613      12.32438651       0.00000000      -3.68801860
3
Lattice="10.0 0.0 0.0 0.0 10.0 0.0 0.0 0.0 10.0" Properties=species:S:1:pos:R:3:forces:R:3 energy=-156.01237833205 free_energy=-156.01237833205 stress="0.0024783611286089 1.1542626202189e-20 -0.00085960403275435 1.1542626202189e-20 -0.00019028991649843 1.8351252017973e-20 -0.00085960403275435 1.8351252017973e-20 0.0069407996457107" pbc="T T T"
O        4.50119858       5.00000000       4.53469073       2.43019659      -0.00000000       4.72914007
H        4.50119858       5.00000000       5.73469073       0.13758079      -0.00000000      -5.58877259
H        5.49880142       5.00000000       4.26530927      -2.56777738       0.00000000       0.85963252
3
Lattice="10.0 0.0 0.0 0.0 10.0 0.0 0.0 0.0 10.0" Properties=species:S:1:pos:R:3:forces:R:3 energy=-156.07893908159 free_energy=-156.07893908159 stress="0.0027016999569222 4.4741738909864e-20 -0.00064260011855268 4.4741738909864e-20 -0.00020905134179303 -2.0297587106855e-19 -0.00064260011855268 -2.0297587106855e-19 -0.01025043252722" pbc="T T T"
O        4.50334812       5.00000000       4.73685708       3.00611692      -0.00000000     -13.50807979
H        4.50334812       5.00000000       5.54796819      -0.19662138       0.00000000      12.86313883
H        5.49665188       5.00000000       4.45203181      -2.80949554      -0.00000000       0.64494096
3
Lattice="10.0 0.0 0.0 0.0 10.0 0.0 0.0 0.0 10.0" Properties=species:S:1:pos:R:3:forces:R:3 energy=-151.83416220181 free_energy=-151.83416220181 stress="-0.024482269620939 -9.6004377548489e-20 0.0072275003941242 -9.6004377548489e-20 -0.00023724119659819 -9.8130720257852e-20 0.0072275003941242 -9.8130720257852e-20 -0.019102105468774" pbc="T T T"
O        4.66140467       5.00000000       4.71084053     -34.90573294      -0.00000000     -12.06917750
H        4.66140467       5.00000000       5.46639609      -1.11591041       0.00000000      22.74685563
H        5.33859533       5.00000000       4.53360391      36.02164336       0.00000000     -10.67767812
3
Lattice="10.0 0.0 0.0 0.0 10.0 0.0 0.0 0.0 10.0" Properties=species:S:1:pos:R:3:forces:R:3 energy=-156.37548267468 free_energy=-156.37548267468 stress="0.005284776871099 4.689558624221e-20 -0.0014117367433037 4.689558624221e-20 -0.00019725821811181 4.8965511130917e-20 -0.0014117367433037 4.8965511130917e-20 -0.0015891570582054" pbc="T T T"
O        4.44642351       5.00000000       4.68377279       4.84624600       0.00000000      -3.39979584
H        4.44642351       5.00000000       5.60599501       0.00406703      -0.00000000       2.12630390
H        5.55357649       5.00000000       4.39400499      -4.85031303      -0.00000000       1.27349193
3
Lattice="10.0 0.0 0.0 0.0 10.0 0.0 0.0 0.0 10.0" Properties=species:S:1:pos:R:3:forces:R:3 energy=-155.39147003964 free_energy=-155.39147003964 stress="-0.0099021644456215 -5.7774579752036e-20 0.0028554159935753 -5.7774579752036e-20 -0.0002221522584323 -2.5038825061711e-19 0.0028554159935753 -2.5038825061711e-19 -0.011126038134897" pbc="T T T"
O        4.60397280       5.00000000       4.68183877     -11.56890008      -0.00000000      -9.29133613
H        4.60397280       5.00000000       5.49294989      -0.84484090       0.00000000      12.90222126
H        5.39602720       5.00000000       4.50705011      12.41374098       0.00000000      -3.61088513
3
Lattice="10.0 0.0 0.0 0.0 10.0 0.0 0.0 0.0 10.0" Properties=species:S:1:pos:R:3:forces:R:3 energy=-155.21644298841 free_energy=-155.21644298841 stress="0.00085888610345627 1.895902944899e-19 0.00010070351593141 1.895902944899e-19 -0.0002155136255882 -1.8771077232011e-19 0.00010070351593141 -1.8771077232011e-19 -0.017153006284446" pbc="T T T"
O        4.52801587       5.00000000       4.74967151       1.47037337       0.00000000     -22.55056283
H        4.52801587       5.00000000       5.50522707      -0.47198377       0.00000000      22.66022239
H        5.47198413       5.00000000       4.49477293      -0.99838960      -0.00000000      -0.10965956
3
Lattice="10.0 0.0 0.0 0.0 10.0 0.0 0.0 0.0 10.0" Properties=species:S:1:pos:R:3:forces:R:3 energy=-156.11388956518 free_energy=-156.11388956518 stress="0.0062589646964237 -7.42909277837e-20 -0.0015224325334436 -7.42909277837e-20 -0.00019187187433798 3.928569328525e-20 -0.0015224325334436 3.928569328525e-20 0.0010738992884065" pbc="T T T"
O        4.41617308       5.00000000       4.64948063       5.41213830       0.00000000      -0.57540725
H        4.41617308       5.00000000       5.62725841       0.01751137      -0.00000000      -0.72669890
H        5.58382692       5.00000000       4.37274159      -5.42964967      -0.00000000       1.30210615
3
Lattice="10.0 0.0 0.0 0.0 10.0 0.0 0.0 0.0 10.0" Properties=species:S:1:pos:R:3:forces:R:3 energy=-155.1933330716 free_energy=-155.1933330716 stress="-0.0016518101478758 1.5321582911392e-19 0.00086017934145061 1.5321582911392e-19 -0.00021873199985716 -1.5215080137189e-19 0.00086017934145061 -1.5215080137189e-19 -0.017353317440785" pbc="T T T"
O        4.55483315       5.00000000       4.74243008      -1.19278349       0.00000000     -21.67948164
H        4.55483315       5.00000000       5.49798563      -0.57686447       0.00000000      22.64972132
H        5.44516685       5.00000000       4.50201437       1.76964796      -0.00000000      -0.97023968
3
Lattice="10.0 0.0 0.0 0.0 10.0 0.0 0.0 0.0 10.0" Properties=species:S:1:pos:R:3:forces:R:3 energy=-156.85566348298 free_energy=-156.85566348298 stress="0.0025894498079114 2.0624249473946e-20 -0.00076113614513194 2.0624249473946e-20 -0.00019874266629771 -1.8952785278231e-20 -0.00076113614513194 -1.8952785278231e-20 0.0010169749355116" pbc="T T T"
O        4.50225838       5.00000000       4.64966696       2.67244634       0.00000000       0.06103900
H        4.50225838       5.00000000       5.62744474       0.01461738      -0.00000000      -0.82362290
H        5.49774162       5.00000000       4.37255526      -2.68706372      -0.00000000       0.76258390
3
Lattice="10.0 0.0 0.0 0.0 10.0 0.0 0.0 0.0 10.0" Properties=species:S:1:pos:R:3:forces:R:3 energy=-156.5994832987 free_energy=-156.5994832987 stress="-0.0051916047818953 -1.2160645685215e-19 0.00152013981594 -1.2160645685215e-19 -0.00020491286078265 -4.9536883615177e-20 0.00152013981594 -4.9536883615177e-20 0.0025023038300241" pbc="T T T"
O        4.58165043       5.00000000       4.59629975      -5.99112188      -0.00000000       4.65845768
H        4.58165043       5.00000000       5.62963308      -0.13286170       0.00000000      -2.83608276
H        5.41834957       5.00000000       4.37036692       6.12398358       0.00000000      -1.82237492
3
Lattice="10.0 0.0 0.0 0.0 10.0 0.0 0.0 0.0 10.0" Properties=species:S:1:pos:R:3:forces:R:3 energy=-155.61037068077 free_energy=-155.61037068077 stress="0.0054501621164591 1.1345637171197e-20 -0.00090496666300354 1.1345637171197e-20 -0.00020341658032699 -1.9337161420216e-19 -0.00090496666300354 -1.9337161420216e-19 -0.010348769247688" pbc="T T T"
O        4.44028221       5.00000000       4.71341613       5.28558207      -0.00000000     -13.79371430
H        4.44028221       5.00000000       5.52452725      -0.33749358       0.00000000      12.98697679
H        5.55971779       5.00000000       4.47547275      -4.94808849      -0.00000000       0.80673751
3
Lattice="10.0 0.0 0.0 0.0 10.0 0.0 0.0 0.0 10.0" Properties=species:S:1:pos:R:3:forces:R:3 energy=-156.15469818494 free_energy=-156.15469818494 stress="-0.0017071759715755 -1.3554726525224e-19 0.00081974700234476 -1.3554726525224e-19 -0.00021419281781508 -1.4720937851525e-19 0.00081974700234476 -1.4720937851525e-19 -0.01066116029026" pbc="T T T"
O        4.55302188       5.00000000       4.70773178      -1.32409169      -0.00000000     -11.94574992
H        4.55302188       5.00000000       5.51884289      -0.50131139       0.00000000      12.86688560
H        5.44697812       5.00000000       4.48115711       1.82540309       0.00000000      -0.92113568
3
Lattice="10.0 0.0 0.0 0.0 10.0 0.0 0.0 0.0 10.0" Properties=species:S:1:pos:R:3:forces:R:3 energy=-156.00940417842 free_energy=-156.00940417842 stress="0.0024508241341942 5.5739862039938e-20 -0.00094607538130277 5.5739862039938e-20 -0.00019086155159236 1.568050424089e-20 -0.00094607538130277 1.568050424089e-20 0.0069926458207026" pbc="T T T"
O        4.50334812       5.00000000       4.54241263       2.37115503       0.00000000       4.64695992
H        4.50334812       5.00000000       5.74241263       0.18028000       0.00000000      -5.59742613
H        5.49665188       5.00000000       4.25758737      -2.55143503      -0.00000000       0.95046621
3
Lattice="10.0 0.0 0.0 0.0 10.0 0.0 0.0 0.0 10.0" Properties=species:S:1:pos:R:3:forces:R:3 energy=-152.77364208538 free_energy=-152.77364208538 stress="-0.024974696465634 -1.3566749289125e-19 0.0063632585350649 -1.3566749289125e-19 -0.00023218641005046 -1.5662837940829e-19 0.0063632585350649 -1.5662837940829e-19 -0.011947820679839" pbc="T T T"
O        4.65822311       5.00000000       4.66986695     -35.33981256      -0.00000000      -3.63495556
H        4.65822311       5.00000000       5.48097806      -1.07277868       0.00000000      12.94934987
H        5.34177689       5.00000000       4.51902194      36.41259124       0.00000000      -9.31439431
3
Lattice="10.0 0.0 0.0 0.0 10.0 0.0 0.0 0.0 10.0" Properties=species:S:1:pos:R:3:forces:R:3 energy=-156.30610056491 free_energy=-156.30610056491 stress="0.0024882325351177 1.969599403863e-20 -0.00087546915948768 1.969599403863e-20 -0.00019219824445646 -1.1503775449195e-19 -0.00087546915948768 -1.1503775449195e-19 0.0059538360786969" pbc="T T T"
O        4.50225838       5.00000000       4.56633363       2.44666936       0.00000000       4.10993287
H        4.50225838       5.00000000       5.71077807       0.13698627       0.00000000      -4.98737251
H        5.49774162       5.00000000       4.28922193      -2.58365563       0.00000000       0.87743964
3
Lattice="10.0 0.0 0.0 0.0 10.0 0.0 0.0 0.0 10.0" Properties=species:S:1:pos:R:3:forces:R:3 energy=-156.01627389631 free_energy=-156.01627389631 stress="0.0063048241433904 -4.6719448291914e-20 -0.0013398526315458 -4.6719448291914e-20 -0.00018846855653281 -9.1935873605206e-20 -0.0013398526315458 -9.1935873605206e-20 0.0030355911404326" pbc="T T T"
O        4.41311144       5.00000000       4.60808035       5.45775023      -0.00000000       1.52274784
H        4.41311144       5.00000000       5.64141368      -0.01893933       0.00000000      -2.66233806
H        5.58688856       5.00000000       4.35858632      -5.43881090       0.00000000       1.13959022
3
Lattice="10.0 0.0 0.0 0.0 10.0 0.0 0.0 0.0 10.0" Properties=species:S:1:pos:R:3:forces:R:3 energy=-156.82362561024 free_energy=-156.82362561024 stress="-0.0018607382549237 -1.3147896078802e-19 0.00058973582913095 -1.3147896078802e-19 -0.0002008784255075 -6.4586679600489e-20 0.00058973582913095 -6.4586679600489e-20 0.0027174348977118" pbc="T T T"
O        4.55215657       5.00000000       4.59315007      -1.84831483      -0.00000000       3.44871172
H        4.55215657       5.00000000       5.62648341      -0.14730011       0.00000000      -2.78607557
H        5.44784343       5.00000000       4.37351659       1.99561494       0.00000000      -0.66263615
3
Lattice="10.0 0.0 0.0 0.0 10.0 0.0 0.0 0.0 10.0" Properties=species:S:1:pos:R:3:forces:R:3 energy=-155.62029164347 free_energy=-155.62029164347 stress="0.0053316054283267 6.9520133540666e-20 -0.0013724431151217 6.9520133540666e-20 -0.00020474185336607 -2.4630743770106e-19 -0.0013724431151217 -2.4630743770106e-19 -0.010111219889977" pbc="T T T"
O        4.44756402       5.00000000       4.74361805       5.02222079      -0.00000000     -14.16528559
H        4.44756402       5.00000000       5.55472916      -0.11552414       0.00000000      12.92455324
H        5.55243598       5.00000000       4.44527084      -4.90669665      -0.00000000       1.24073235
3
Lattice="10.0 0.0 0.0 0.0 10.0 0.0 0.0 0.0 10.0" Properties=species:S:1:pos:R:3:forces:R:3 energy=-155.39671470347 free_energy=-155.39671470347 stress="-0.0098588943141329 -1.7420419609203e-19 0.0028980308882546 -1.7420419609203e-19 -0.00022216104138993 -1.8475001085076e-19 0.0028980308882546 -1.8475001085076e-19 -0.011147515454136" pbc="T T T"
O        4.60466263       5.00000000       4.68490810     -11.56981481      -0.00000000      -9.21862396
H        4.60466263       5.00000000       5.49601922      -0.81082517       0.00000000      12.88969964
H        5.39533737       5.00000000       4.50398078      12.38063998       0.00000000      -3.67107568
3
Lattice="10.0 0.0 0.0 0.0 10.0 0.0 0.0 0.0 10.0" Properties=species:S:1:pos:R:3:forces:R:3 energy=-153.46745627163 free_energy=-153.46745627163 stress="-0.016087329380212 -1.4324924118894e-19 0.0047203635347988 -1.4324924118894e-19 -0.00023203806645965 -1.4480866444399e-19 0.0047203635347988 -1.4480866444399e-19 -0.018348429137867" pbc="T T T"
O        4.63309213       5.00000000       4.71219256     -20.76560886      -0.00000000     -16.28558605
H        4.63309213       5.00000000       5.46774812      -1.05173357       0.00000000      22.72383644
H        5.36690787       5.00000000       4.53225188      21.81734243       0.00000000      -6.43825039
3
Lattice="10.0 0.0 0.0 0.0 10.0 0.0 0.0 0.0 10.0" Properties=species:S:1:pos:R:3:forces:R:3 energy=-156.82702410981 free_energy=-156.82702410981 stress="-0.0018154425402024 -2.9645908094237e-20 0.00051685529403876 -2.9645908094237e-20 -0.00020192921639537 -5.062088151854e-20 0.00051685529403876 -5.062088151854e-20 0.0027651260075468" pbc="T T T"
O        4.55675155       5.00000000       4.61043278      -1.94716931      -0.00000000       3.41412700
H        4.55675155       5.00000000       5.64376611      -0.01823700       0.00000000      -2.82682069
H        5.44324845       5.00000000       4.35623389       1.96540631       0.00000000      -0.58730631
3
Lattice="10.0 0.0 0.0 0.0 10.0 0.0 0.0 0.0 10.0" Properties=species:S:1:pos:R:3:forces:R:3 energy=-155.20721618635 free_energy=-155.20721618635 stress="0.00084959556342938 2.1404150957733e-19 0.0002039635661743 2.1404150957733e-19 -0.00021519681398951 -2.3673478528951e-19 0.0002039635661743 -2.3673478528951e-19 -0.01720276726033" pbc="T T T"
O        4.52517805       5.00000000       4.73865443       1.55761755       0.00000000     -22.47464508
H        4.52517805       5.00000000       5.49420998      -0.57450062       0.00000000      22.69238785
H        5.47482195       5.00000000       4.50579002      -0.98311693      -0.00000000      -0.21774277
3
Lattice="10.0 0.0 0.0 0.0 10.0 0.0 0.0 0.0 10.0" Properties=species:S:1:pos:R:3:forces:R:3 energy=-155.87447274082 free_energy=-155.87447274082 stress="-0.0099054504081635 -1.5662796194629e-19 0.0026364242979768 -1.5662796194629e-19 -0.00020606318234018 -1.553316950119e-19 0.0026364242979768 -1.553316950119e-19 0.0038396442294888" pbc="T T T"
O        4.60611361       5.00000000       4.55214136     -12.28631368      -0.00000000       7.49994129
H        4.60611361       5.00000000       5.64103025      -0.20517674       0.00000000      -4.14664118
H        5.39388639       5.00000000       4.35896975      12.49149042       0.00000000      -3.35330010
3
Lattice="10.0 0.0 0.0 0.0 10.0 0.0 0.0 0.0 10.0" Properties=species:S:1:pos:R:3:forces:R:3 energy=-156.40139232427 free_energy=-156.40139232427 stress="-0.0052715209727301 -8.8050148295781e-20 0.0014495885714595 -8.8050148295781e-20 -0.00020236354615944 -5.2745271043925e-20 0.0014495885714595 -5.2745271043925e-20 0.0041134670821542" pbc="T T T"
O        4.57994828       5.00000000       4.56201835      -6.07369214      -0.00000000       5.86492155
H        4.57994828       5.00000000       5.65090724      -0.12056670       0.00000000      -4.13386712
H        5.42005172       5.00000000       4.34909276       6.19425884       0.00000000      -1.73105443
3
Lattice="10.0 0.0 0.0 0.0 10.0 0.0 0.0 0.0 10.0" Properties=species:S:1:pos:R:3:forces:R:3 energy=-155.87215760048 free_energy=-155.87215760048 stress="0.0042321085665206 6.3436684662283e-23 -0.00077366276397187 6.3436684662283e-23 -0.00020582828736225 -1.6010668746956e-19 -0.00077366276397187 -1.6010668746956e-19 -0.010320991369176" pbc="T T T"
O        4.47023113       5.00000000       4.72000197       4.39175519      -0.00000000     -13.67170583
H        4.47023113       5.00000000       5.53111309      -0.31125022       0.00000000      12.94313669
H        5.52976887       5.00000000       4.46888691      -4.08050497      -0.00000000       0.72856915
3
Lattice="10.0 0.0 0.0 0.0 10.0 0.0 0.0 0.0 10.0" Properties=species:S:1:pos:R:3:forces:R:3 energy=-151.79102759044 free_energy=-151.79102759044 stress="-0.025088893420207 -6.9196277173679e-20 0.0063212019551244 -6.9196277173679e-20 -0.0002377851899052 -1.3998832834201e-19 0.0063212019551244 -1.3998832834201e-19 -0.01863281050879" pbc="T T T"
O        4.65764834       5.00000000       4.69499131     -35.18058895      -0.00000000     -13.60192928
H        4.65764834       5.00000000       5.45054687      -1.33303752       0.00000000      22.83901085
H        5.34235166       5.00000000       4.54945313      36.51362647       0.00000000      -9.23708157
3
Lattice="10.0 0.0 0.0 0.0 10.0 0.0 0.0 0.0 10.0" Properties=species:S:1:pos:R:3:forces:R:3 energy=-153.44793307747 free_energy=-153.44793307747 stress="-0.016293394849562 -1.5094829078543e-19 0.004455286581256 -1.5094829078543e-19 -0.00023221101760004 -1.67379452586e-19 0.004455286581256 -1.67379452586e-19 -0.018210172921224" pbc="T T T"
O        4.63109795       5.00000000       4.70363064     -20.81859467      -0.00000000     -16.72163307
H        4.63109795       5.00000000       5.45918619      -1.16051084       0.00000000      22.76586097
H        5.36890205       5.00000000       4.54081381      21.97910551       0.00000000      -6.04422790
3
Lattice="10.0 0.0 0.0 0.0 10.0 0.0 0.0 0.0 10.0" Properties=species:S:1:pos:R:3:forces:R:3 energy=-156.40358427013 free_energy=-156.40358427013 stress="0.0041088720805723 -1.4172906268619e-20 -0.0011764657245806 -1.4172906268619e-20 -0.00020316446461954 7.9068402432663e-20 -0.0011764657245806 7.9068402432663e-20 -0.0052038258784956" pbc="T T T"
O        4.47664641       5.00000000       4.71673589       4.04560072       0.00000000      -7.51820790
H        4.47664641       5.00000000       5.58340256      -0.03434609      -0.00000000       6.39574034
H        5.52335359       5.00000000       4.41659744      -4.01125464       0.00000000       1.12246756
3
Lattice="10.0 0.0 0.0 0.0 10.0 0.0 0.0 0.0 10.0" Properties=species:S:1:pos:R:3:forces:R:3 energy=-153.24499603564 free_energy=-153.24499603564 stress="0.0043092143381139 2.6999775441631e-20 -0.00047580567598234 2.6999775441631e-20 -0.00021397205418691 4.318282801235e-20 -0.00047580567598234 4.318282801235e-20 -0.026163246600364" pbc="T T T"
O        4.46745297       5.00000000       4.76319637       4.79691336      -0.00000000     -37.97022491
H        4.46745297       5.00000000       5.46319637      -0.66096550      -0.00000000      37.52504688
H        5.53254703       5.00000000       4.53680363      -4.13594786      -0.00000000       0.44517803
3
Lattice="10.0 0.0 0.0 0.0 10.0 0.0 0.0 0.0 10.0" Properties=species:S:1:pos:R:3:forces:R:3 energy=-152.98866817723 free_energy=-152.98866817723 stress="0.0054950364332888 5.1603671547852e-20 -0.00079336893216639 5.1603671547852e-20 -0.00021195295605877 6.8368072537434e-20 -0.00079336893216639 6.8368072537434e-20 -0.026098697113279" pbc="T T T"
O        4.44028221       5.00000000       4.76897169       5.55966049       0.00000000     -38.23883073
H        4.44028221       5.00000000       5.46897169      -0.56710055      -0.00000000      37.53160876
H        5.55971779       5.00000000       4.53102831      -4.99255994      -0.00000000       0.70722197
3
Lattice="10.0 0.0 0.0 0.0 10.0 0.0 0.0 0.0 10.0" Properties=species:S:1:pos:R:3:forces:R:3 energy=-156.56024020168 free_energy=-156.56024020168 stress="0.0041419696620022 9.6822207082838e-20 -0.00079852828679708 9.6822207082838e-20 -0.0001921324748516 -7.6689478016548e-20 -0.00079852828679708 -7.6689478016548e-20 0.0029409185312385" pbc="T T T"
O        4.46745297       5.00000000       4.59652970       4.06498519      -0.00000000       1.94202492
H        4.46745297       5.00000000       5.62986303      -0.09786395      -0.00000000      -2.68976722
H        5.53254703       5.00000000       4.37013697      -3.96712124       0.00000000       0.74774230
3
Lattice="10.0 0.0 0.0 0.0 10.0 0.0 0.0 0.0 10.0" Properties=species:S:1:pos:R:3:forces:R:3 energy=-156.30876234032 free_energy=-156.30876234032 stress="0.0052463266637681 4.2978348327599e-20 -0.0014310651292803 4.2978348327599e-20 -0.00019137837290523 -2.5169078184735e-20 -0.0014310651292803 -2.5169078184735e-20 0.0031607526275052" pbc="T T T"
O        4.44531631       5.00000000       4.62391882       4.72768725      -0.00000000       1.41668952
H        4.44531631       5.00000000       5.65725215       0.07531593      -0.00000000      -2.70490280
H        5.55468369       5.00000000       4.34274785      -4.80300317      -0.00000000       1.28821328
3
Lattice="10.0 0.0 0.0 0.0 10.0 0.0 0.0 0.0 10.0" Properties=species:S:1:pos:R:3:forces:R:3 energy=-156.3935341929 free_energy=-156.3935341929 stress="-0.0053811871281072 -6.6618875183187e-20 0.0013954354270508 -6.6618875183187e-20 -0.00020144265933499 -2.0979423052977e-19 0.0013954354270508 -2.0979423052977e-19 0.0041310294868917" pbc="T T T"
O        4.57613604       5.00000000       4.54565062      -6.02381178      -0.00000000       5.74584645
H        4.57613604       5.00000000       5.63453951      -0.24420462       0.00000000      -4.09424299
H        5.42386396       5.00000000       4.36546049       6.26801640       0.00000000      -1.65160345
3
Lattice="10.0 0.0 0.0 0.0 10.0 0.0 0.0 0.0 10.0" Properties=species:S:1:pos:R:3:forces:R:3 energy=-156.59526944193 free_energy=-156.59526944193 stress="-0.0052618116432139 -2.7023698016963e-20 0.001490423074967 -2.7023698016963e-20 -0.00020436314397361 -1.1787795867185e-19 0.001490423074967 -1.1787795867185e-19 0.0025147346447921" pbc="T T T"
O        4.57913509       5.00000000       4.58653461      -5.96077487      -0.00000000       4.58619032
H        4.57913509       5.00000000       5.61986794      -0.21003305       0.00000000      -2.81002049
H        5.42086491       5.00000000       4.38013206       6.17080792      -0.00000000      -1.77616983
3
Lattice="10.0 0.0 0.0 0.0 10.0 0.0 0.0 0.0 10.0" Properties=species:S:1:pos:R:3:forces:R:3 energy=-156.11389183168 free_energy=-156.11389183168 stress="0.00059400491348948 1.3525332931803e-19 -0.00011418880580796 1.3525332931803e-19 -0.00019142522603215 -5.8432371662256e-20 -0.00011418880580796 -5.8432371662256e-20 0.0066986905933241" pbc="T T T"
O        4.52259735       5.00000000       4.50535207       0.73585843      -0.00000000       5.45550446
H        4.52259735       5.00000000       5.70535207      -0.02986888      -0.00000000      -5.57221825
H        5.47740265       5.00000000       4.29464793      -0.70598955      -0.00000000       0.11671379
3
Lattice="10.0 0.0 0.0 0.0 10.0 0.0 0.0 0.0 10.0" Properties=species:S:1:pos:R:3:forces:R:3 energy=-156.01615276984 free_energy=-156.01615276984 stress="0.00626070500407 4.5042281577032e-20 -0.0014876797453575 4.5042281577032e-20 -0.00018894876297426 -6.96477132517e-20 -0.0014876797453575 -6.96477132517e-20 0.0031056332712238" pbc="T T T"
O        4.41511732       5.00000000       4.61716998       5.38695620      -0.00000000       1.40381561
H        4.41511732       5.00000000       5.65050332       0.03302097      -0.00000000      -2.67376458
H        5.58488268       5.00000000       4.34949668      -5.41997716       0.00000000       1.26994897
3
Lattice="10.0 0.0 0.0 0.0 10.0 0.0 0.0 0.0 10.0" Properties=species:S:1:pos:R:3:forces:R:3 energy=-156.67113444436 free_energy=-156.67113444436 stress="-0.0052187481500889 7.7639675238145e-20 0.0016027731040111 7.7639675238145e-20 -0.00020996078969555 5.5314703484278e-20 0.0016027731040111 5.5314703484278e-20 -0.0022861711572342" pbc="T T T"
O        4.57834722       5.00000000       4.63882243      -5.69313461       0.00000000      -0.13113227
H        4.57834722       5.00000000       5.56104466      -0.41412751      -0.00000000       2.03706971
H        5.42165278       5.00000000       4.43895534       6.10726212      -0.00000000      -1.90593744
3
Lattice="10.0 0.0 0.0 0.0 10.0 0.0 0.0 0.0 10.0" Properties=species:S:1:pos:R:3:forces:R:3 energy=-156.67388730983 free_energy=-156.67388730983 stress="-0.0017526488641514 -1.1475718756904e-19 0.00076651834394134 -1.1475718756904e-19 -0.00021006153675258 1.3343709113812e-19 0.00076651834394134 1.3343709113812e-19 -0.0057322931131002" pbc="T T T"
O        4.55215657       5.00000000       4.67648341      -1.46366200      -0.00000000      -5.51424050
H        4.55215657       5.00000000       5.54315007      -0.40995017      -0.00000000       6.37421029
H        5.44784343       5.00000000       4.45684993       1.87361217       0.00000000      -0.85996979
3
Lattice="10.0 0.0 0.0 0.0 10.0 0.0 0.0 0.0 10.0" Properties=species:S:1:pos:R:3:forces:R:3 energy=-155.28061106281 free_energy=-155.28061106281 stress="0.0061136964208355 -5.5285197456394e-20 -0.0018575316388184 -5.5285197456394e-20 -0.00018393792553455 -4.5085879493742e-20 -0.0018575316388184 -4.5085879493742e-20 0.0071681788605999" pbc="T T T"
O        4.41955087       5.00000000       4.55191710       5.13792729       0.00000000       3.96446674
H        4.41955087       5.00000000       5.75191710       0.19477260      -0.00000000      -5.56269576
H        5.58044913       5.00000000       4.24808290      -5.33269988       0.00000000       1.59822903
3
Lattice="10.0 0.0 0.0 0.0 10.0 0.0 0.0 0.0 10.0" Properties=species:S:1:pos:R:3:forces:R:3 energy=-156.11927429831 free_energy=-156.11927429831 stress="0.0052217675645596 1.0459318534294e-20 -0.0014657695264653 1.0459318534294e-20 -0.00018910909003269 -2.1898324080252e-19 -0.0014657695264653 -2.1898324080252e-19 0.0047667922532134" pbc="T T T"
O        4.44531631       5.00000000       4.59614104       4.67061914      -0.00000000       2.71357563
H        4.44531631       5.00000000       5.68502993       0.10917823       0.00000000      -4.03301414
H        5.55468369       5.00000000       4.31497007      -4.77979737      -0.00000000       1.31943851
3
Lattice="10.0 0.0 0.0 0.0 10.0 0.0 0.0 0.0 10.0" Properties=species:S:1:pos:R:3:forces:R:3 energy=-155.10525547174 free_energy=-155.10525547174 stress="-0.01603082030255 -6.2141072557536e-20 0.0044857048714028 -6.2141072557536e-20 -0.00021279446909348 -3.035529442711e-20 0.0044857048714028 -3.035529442711e-20 0.0017560001826507" pbc="T T T"
O        4.63453203       5.00000000       4.57898484     -21.54105129      -0.00000000       9.01216618
H        4.63453203       5.00000000       5.61231817      -0.29763250       0.00000000      -2.86837382
H        5.36546797       5.00000000       4.38768183      21.83868379       0.00000000      -6.14379236
3
Lattice="10.0 0.0 0.0 0.0 10.0 0.0 0.0 0.0 10.0" Properties=species:S:1:pos:R:3:forces:R:3 energy=-156.56166411465 free_energy=-156.56166411465 stress="0.0040857943834381 2.1915156723806e-20 -0.0010337395234638 2.1915156723806e-20 -0.00019303878577859 -1.6648334124935e-19 -0.0010337395234638 -1.6648334124935e-19 0.0030594191858531" pbc="T T T"
O        4.47122101       5.00000000       4.61299647       3.93406332      -0.00000000       1.74093965
H        4.47122101       5.00000000       5.64632980       0.00871515       0.00000000      -2.71656471
H        5.52877899       5.00000000       4.35367020      -3.94277847      -0.00000000       0.97562506
3
Lattice="10.0 0.0 0.0 0.0 10.0 0.0 0.0 0.0 10.0" Properties=species:S:1:pos:R:3:forces:R:3 energy=-154.6410927706 free_energy=-154.6410927706 stress="-0.016337203258493 -1.1017997360153e-19 0.0040055967646786 -1.1017997360153e-19 -0.00020804840935963 -1.7686878938706e-19 0.0040055967646786 -1.7686878938706e-19 0.0048091988504526" pbc="T T T"
O        4.63174053       5.00000000       4.51204530     -21.84573825      -0.00000000      10.48308671
H        4.63174053       5.00000000       5.65648974      -0.24634393       0.00000000      -5.03719074
H        5.36825947       5.00000000       4.34351026      22.09208218       0.00000000      -5.44589597
3
Lattice="10.0 0.0 0.0 0.0 10.0 0.0 0.0 0.0 10.0" Properties=species:S:1:pos:R:3:forces:R:3 energy=-153.56840241322 free_energy=-153.56840241322 stress="-0.024605173001291 -9.9635289944127e-20 0.00670090450976 -9.9635289944127e-20 -0.00021977717292947 3.4365543825551e-20 0.00670090450976 3.4365543825551e-20 -0.00084450808104246" pbc="T T T"
O        4.66072745       5.00000000       4.59710029     -35.65298291      -0.00000000      10.80031065
H        4.66072745       5.00000000       5.57487807      -0.49437771      -0.00000000      -0.91878845
H        5.33927255       5.00000000       4.42512193      36.14736062       0.00000000      -9.88152220
3
Lattice="10.0 0.0 0.0 0.0 10.0 0.0 0.0 0.0 10.0" Properties=species:S:1:pos:R:3:forces:R:3 energy=-156.11392060764 free_energy=-156.11392060764 stress="0.0051219373199059 6.9801661161791e-20 -0.0017185474507701 6.9801661161791e-20 -0.00019022753134301 -2.3635331258694e-19 -0.0017185474507701 -2.3635331258694e-19 0.0049120517397025" pbc="T T T"
O        4.44994470       5.00000000       4.61328138       4.52469572       0.00000000       2.49360353
H        4.44994470       5.00000000       5.70217026       0.20519370       0.00000000      -4.05407207
H        5.55005530       5.00000000       4.29782974      -4.72988942      -0.00000000       1.56046854
3
Lattice="10.0 0.0 0.0 0.0 10.0 0.0 0.0 0.0 10.0" Properties=species:S:1:pos:R:3:forces:R:3 energy=-156.70944173858 free_energy=-156.70944173858 stress="-0.0051059593427168 -4.5779291567159e-20 0.0015938620866622 -4.5779291567159e-20 -0.00020780796685622 -8.3426714687004e-21 0.0015938620866622 -8.3426714687004e-21 0.00042125013257479" pbc="T T T"
O        4.58345327       5.00000000       4.63055397      -5.89390640      -0.00000000       2.83238803
H        4.58345327       5.00000000       5.60833174      -0.15353568      -0.00000000      -0.91368880
H        5.41654673       5.00000000       4.39166826       6.04744207       0.00000000      -1.91869924
3
Lattice="10.0 0.0 0.0 0.0 10.0 0.0 0.0 0.0 10.0" Properties=species:S:1:pos:R:3:forces:R:3 energy=-155.40174631323 free_energy=-155.40174631323 stress="-0.0098149235271135 -7.3497082366037e-20 0.0029403009667364 -7.3497082366037e-20 -0.00022217737105198 -3.0749822390713e-19 0.0029403009667364 -3.0749822390713e-19 -0.011169866581019" pbc="T T T"
O        4.60537625       5.00000000       4.68797199     -11.57012935      -0.00000000      -9.14590700
H        4.60537625       5.00000000       5.49908310      -0.77714395       0.00000000      12.87717168
H        5.39462375       5.00000000       4.50091690      12.34727330       0.00000000      -3.73126468
3
Lattice="10.0 0.0 0.0 0.0 10.0 0.0 0.0 0.0 10.0" Properties=species:S:1:pos:R:3:forces:R:3 energy=-154.90220289766 free_energy=-154.90220289766 stress="0.0042515669409562 4.3189412662763e-20 -0.00077249066233934 4.3189412662763e-20 -0.00021017473263713 -1.534983478362e-19 -0.00077249066233934 -1.534983478362e-19 -0.01697937171087" pbc="T T T"
O        4.47122101       5.00000000       4.75188536       4.49903060      -0.00000000     -23.44947804
H        4.47122101       5.00000000       5.50744092      -0.39015015       0.00000000      22.72054485
H        5.52877899       5.00000000       4.49255908      -4.10888045      -0.00000000       0.72893319
3
Lattice="10.0 0.0 0.0 0.0 10.0 0.0 0.0 0.0 10.0" Properties=species:S:1:pos:R:3:forces:R:3 energy=-153.26616069506 free_energy=-153.26616069506 stress="-0.024440387320522 -1.5938647446277e-19 0.006867813367394 -1.5938647446277e-19 -0.00021495615439188 -1.3730222361509e-19 0.006867813367394 -1.3730222361509e-19 0.0026839752252768" pbc="T T T"
O        4.66210227       5.00000000       4.54679766     -35.79077018      -0.00000000      14.37241511
H        4.66210227       5.00000000       5.63568655      -0.26436136       0.00000000      -4.20310080
H        5.33789773       5.00000000       4.36431345      36.05513154       0.00000000     -10.16931431
3
Lattice="10.0 0.0 0.0 0.0 10.0 0.0 0.0 0.0 10.0" Properties=species:S:1:pos:R:3:forces:R:3 energy=-153.47354266304 free_energy=-153.47354266304 stress="-0.016015860389939 -1.4734920632314e-19 0.0048072849478841 -1.4734920632314e-19 -0.00023199549233718 -1.450497222538e-19 0.0048072849478841 -1.450497222538e-19 -0.018397764865145" pbc="T T T"
O        4.63380106       5.00000000       4.71503594     -20.74558096      -0.00000000     -16.14049230
H        4.63380106       5.00000000       5.47059149      -1.01625311       0.00000000      22.70986599
H        5.36619894       5.00000000       4.52940851      21.76183407       0.00000000      -6.56937369
3
Lattice="10.0 0.0 0.0 0.0 10.0 0.0 0.0 0.0 10.0" Properties=species:S:1:pos:R:3:forces:R:3 energy=-156.18708513409 free_energy=-156.18708513409 stress="-0.0096725024034275 -1.0289028696311e-19 0.0029250450887176 -1.0289028696311e-19 -0.00021150047758201 2.9503911053003e-20 0.0029250450887176 2.9503911053003e-20 6.797852920784e-05" pbc="T T T"
O        4.60929959       5.00000000       4.61987000     -12.03665905      -0.00000000       4.67670226
H        4.60929959       5.00000000       5.59764778      -0.25692019      -0.00000000      -0.92700628
H        5.39070041       5.00000000       4.40235222      12.29357924       0.00000000      -3.74969597
3
Lattice="10.0 0.0 0.0 0.0 10.0 0.0 0.0 0.0 10.0" Properties=species:S:1:pos:R:3:forces:R:3 energy=-151.84687526932 free_energy=-151.84687526932 stress="-0.024261228120517 -1.6401993422552e-19 0.0075195667797488 -1.6401993422552e-19 -0.00023711942130533 -2.1789412321235e-19 0.0075195667797488 -2.1789412321235e-19 -0.019279132997158" pbc="T T T"
O        4.66282019       5.00000000       4.71608264     -34.79777791      -0.00000000     -11.56104573
H        4.66282019       5.00000000       5.47163819      -1.04674400       0.00000000      22.71657596
H        5.33717981       5.00000000       4.52836181      35.84452191       0.00000000     -11.15553023
3
Lattice="10.0 0.0 0.0 0.0 10.0 0.0 0.0 0.0 10.0" Properties=species:S:1:pos:R:3:forces:R:3 energy=-155.4275700022 free_energy=-155.4275700022 stress="-0.0095365162919904 -2.7536726853868e-19 0.0031863418398781 -2.7536726853868e-19 -0.00022242845343327 -1.7666616660054e-19 0.0031863418398781 -1.7666616660054e-19 -0.011319216655341" pbc="T T T"
O        4.61015498       5.00000000       4.70623071     -11.55912715      -0.00000000      -8.70924317
H        4.61015498       5.00000000       5.51734182      -0.58201302       0.00000000      12.80176385
H        5.38984502       5.00000000       4.48265818      12.14114017       0.00000000      -4.09252068
3
Lattice="10.0 0.0 0.0 0.0 10.0 0.0 0.0 0.0 10.0" Properties=species:S:1:pos:R:3:forces:R:3 energy=-154.41413015097 free_energy=-154.41413015097 stress="-0.0099397676267085 -4.3061384605775e-20 0.0029021391848712 -4.3061384605775e-20 -0.00022707651589046 -2.0998306477126e-19 0.0029021391848712 -2.0998306477126e-19 -0.017825769105481" pbc="T T T"
O        4.60330681       5.00000000       4.70654196     -11.37272333      -0.00000000     -19.08242891
H        4.60330681       5.00000000       5.46209752      -1.06524619       0.00000000      22.74596045
H        5.39669319       5.00000000       4.53790248      12.43796953       0.00000000      -3.66353154
3
Lattice="10.0 0.0 0.0 0.0 10.0 0.0 0.0 0.0 10.0" Properties=species:S:1:pos:R:3:forces:R:3 energy=-153.00369301431 free_energy=-153.00369301431 stress="0.0054097171217994 5.6969173919784e-21 -0.0011911244214763 5.6969173919784e-21 -0.00021283075868327 3.2299649853858e-20 -0.0011911244214763 3.2299649853858e-20 -0.025918883926221" pbc="T T T"
O        4.44642351       5.00000000       4.79488390       5.33113604       0.00000000     -38.55446825
H        4.44642351       5.00000000       5.49488390      -0.35978261      -0.00000000      37.47992436
H        5.55357649       5.00000000       4.50511610      -4.97135343      -0.00000000       1.07454389
3
Lattice="10.0 0.0 0.0 0.0 10.0 0.0 0.0 0.0 10.0" Properties=species:S:1:pos:R:3:forces:R:3 energy=-156.07945754474 free_energy=-156.07945754474 stress="-0.0096611623643846 -1.762455640918e-19 0.0029079440256225 -1.762455640918e-19 -0.00020912298191273 -2.6359616291872e-20 0.0029079440256225 -2.6359616291872e-20 0.0021183060850346" pbc="T T T"
O        4.61015498       5.00000000       4.59511959     -12.15475966      -0.00000000       6.61365946
H        4.61015498       5.00000000       5.62845293      -0.15197244      -0.00000000      -2.87751235
H        5.38984502       5.00000000       4.37154707      12.30673210       0.00000000      -3.73614711
3
Lattice="10.0 0.0 0.0 0.0 10.0 0.0 0.0 0.0 10.0" Properties=species:S:1:pos:R:3:forces:R:3 energy=-155.57519657485 free_energy=-155.57519657485 stress="0.00518833223671 -4.1330734364094e-22 -0.0015209031488959 -4.1330734364094e-22 -0.00018541844951695 -1.2713862111581e-20 -0.0015209031488959 -1.2713862111581e-20 0.0070655372661941" pbc="T T T"
O        4.44531631       5.00000000       4.54058548       4.59591234       0.00000000       4.19296733
H        4.44531631       5.00000000       5.74058548       0.15214195      -0.00000000      -5.56199082
H        5.55468369       5.00000000       4.25941452      -4.74805429      -0.00000000       1.36902349
3
Lattice="10.0 0.0 0.0 0.0 10.0 0.0 0.0 0.0 10.0" Properties=species:S:1:pos:R:3:forces:R:3 energy=-156.40698370251 free_energy=-156.40698370251 stress="0.0053687116958988 2.5186240111912e-20 -0.0010559554125886 2.5186240111912e-20 -0.00019285163011957 -7.4789970671265e-20 -0.0010559554125886 -7.4789970671265e-20 0.00092448279194803" pbc="T T T"
O        4.44028221       5.00000000       4.63008280       4.97683333      -0.00000000      -0.22059357
H        4.44028221       5.00000000       5.60786058      -0.10701043      -0.00000000      -0.72082038
H        5.55971779       5.00000000       4.39213942      -4.86982290      -0.00000000       0.94141394
3
Lattice="10.0 0.0 0.0 0.0 10.0 0.0 0.0 0.0 10.0" Properties=species:S:1:pos:R:3:forces:R:3 energy=-156.62496293711 free_energy=-156.62496293711 stress="0.0042007419963382 -4.2558198842141e-20 -0.00070477547878148 -4.2558198842141e-20 -0.00019787290588058 9.8717140735471e-20 -0.00070477547878148 9.8717140735471e-20 -0.0018470955618745" pbc="T T T"
O        4.46745297       5.00000000       4.65208525       4.25059070       0.00000000      -2.81422004
H        4.46745297       5.00000000       5.57430748      -0.22523781      -0.00000000       2.15437469
H        5.53254703       5.00000000       4.42569252      -4.02535289      -0.00000000       0.65984535
3
Lattice="10.0 0.0 0.0 0.0 10.0 0.0 0.0 0.0 10.0" Properties=species:S:1:pos:R:3:forces:R:3 energy=-151.85290387687 free_energy=-151.85290387687 stress="-0.015725414584527 -1.4938548492451e-19 0.0052497314948179 -1.4938548492451e-19 -0.00023706626950217 1.1009299502979e-19 0.0052497314948179 1.1009299502979e-19 -0.027768955501785" pbc="T T T"
O        4.63685669       5.00000000       4.75412967     -20.44824802       0.00000000     -30.27502287
H        4.63685669       5.00000000       5.45412967      -1.09236188      -0.00000000      37.50848938
H        5.36314331       5.00000000       4.54587033      21.54060990       0.00000000      -7.23346650
3
Lattice="10.0 0.0 0.0 0.0 10.0 0.0 0.0 0.0 10.0" Properties=species:S:1:pos:R:3:forces:R:3 energy=-155.17811713298 free_energy=-155.17811713298 stress="-0.0017085863329671 -1.0232165845299e-19 0.0009265942562868 -1.0232165845299e-19 -0.00021845074363657 -1.2863831535389e-19 0.0009265942562868 -1.2863831535389e-19 -0.017378427500886" pbc="T T T"
O        4.55131820       5.00000000       4.72856176      -1.10297036      -0.00000000     -21.65826122
H        4.55131820       5.00000000       5.48411732      -0.71554016       0.00000000      22.69489761
H        5.44868180       5.00000000       4.51588268       1.81851052       0.00000000      -1.03663639
3
Lattice="10.0 0.0 0.0 0.0 10.0 0.0 0.0 0.0 10.0" Properties=species:S:1:pos:R:3:forces:R:3 energy=-156.59658813802 free_energy=-156.59658813802 stress="0.0026957118036429 2.8169415678635e-20 -0.00051461729806214 2.8169415678635e-20 -0.00020449751726847 7.9803221982123e-20 -0.00051461729806214 7.9803221982123e-20 -0.0054307176152129" pbc="T T T"
O        4.49916910       5.00000000       4.69360307       3.00078547      -0.00000000      -6.92115300
H        4.49916910       5.00000000       5.56026974      -0.22192771      -0.00000000       6.40943089
H        5.50083090       5.00000000       4.43973026      -2.77885776      -0.00000000       0.51172211
3
Lattice="10.0 0.0 0.0 0.0 10.0 0.0 0.0 0.0 10.0" Properties=species:S:1:pos:R:3:forces:R:3 energy=-155.82572283083 free_energy=-155.82572283083 stress="0.0039986135076198 -1.1751904555319e-20 -0.0011878364939357 -1.1751904555319e-20 -0.00018743063582831 -4.3746505515908e-20 -0.0011878364939357 -4.3746505515908e-20 0.0069871515041641" pbc="T T T"
O        4.47224270       5.00000000       4.53376094       3.73946457      -0.00000000       4.44582769
H        4.47224270       5.00000000       5.73376094       0.12571866      -0.00000000      -5.56919526
H        5.52775730       5.00000000       4.26623906      -3.86518323      -0.00000000       1.12336757
3
Lattice="10.0 0.0 0.0 0.0 10.0 0.0 0.0 0.0 10.0" Properties=species:S:1:pos:R:3:forces:R:3 energy=-156.6621899446 free_energy=-156.6621899446 stress="0.0041019603111295 1.6394010501684e-20 -0.0010488815899284 1.6394010501684e-20 -0.0001958726744064 -1.5339047138353e-20 -0.0010488815899284 -1.5339047138353e-20 0.0010240035728067" pbc="T T T"
O        4.47224270       5.00000000       4.64487206       3.98224187      -0.00000000      -0.21601036
H        4.47224270       5.00000000       5.62264983      -0.01502015      -0.00000000      -0.77594660
H        5.52775730       5.00000000       4.37735017      -3.96722171      -0.00000000       0.99195696
3
Lattice="10.0 0.0 0.0 0.0 10.0 0.0 0.0 0.0 10.0" Properties=species:S:1:pos:R:3:forces:R:3 energy=-156.89214457445 free_energy=-156.89214457445 stress="-0.0018224796624186 -1.7480459353427e-19 0.00075073542594548 -1.7480459353427e-19 -0.00020610024687164 1.135470168203e-19 0.00075073542594548 1.135470168203e-19 -0.0021074962734606" pbc="T T T"
O        4.54972250       5.00000000       4.63825505      -1.54604977      -0.00000000      -1.24058005
H        4.54972250       5.00000000       5.56047727      -0.39555258      -0.00000000       2.07840471
H        5.45027750       5.00000000       4.43952273       1.94160235       0.00000000      -0.83782466
3
Lattice="10.0 0.0 0.0 0.0 10.0 0.0 0.0 0.0 10.0" Properties=species:S:1:pos:R:3:forces:R:3 energy=-156.5610967576 free_energy=-156.5610967576 stress="0.0040523018312027 1.1512066132799e-20 -0.0011480584537716 1.1512066132799e-20 -0.00019353190938501 3.5762087756784e-22 -0.0011480584537716 3.5762087756784e-22 0.0031228404214771" pbc="T T T"
O        4.47329616       5.00000000       4.62118404       3.86593596      -0.00000000       1.64183551
H        4.47329616       5.00000000       5.65451737       0.06086421      -0.00000000      -2.72990014
H        5.52670384       5.00000000       4.34548263      -3.92680017      -0.00000000       1.08806462
3
Lattice="10.0 0.0 0.0 0.0 10.0 0.0 0.0 0.0 10.0" Properties=species:S:1:pos:R:3:forces:R:3 energy=-154.89780984503 free_energy=-154.89780984503 stress="-0.016315068328833 -1.2198775945548e-19 0.0040617520678833 -1.2198775945548e-19 -0.00020996825951711 -1.1264473162237e-19 0.0040617520678833 -1.1264473162237e-19 0.0035447142840636" pbc="T T T"
O        4.63174053       5.00000000       4.53982307     -21.74594230      -0.00000000       9.66790270
H        4.63174053       5.00000000       5.62871196      -0.31512720       0.00000000      -4.14600472
H        5.36825947       5.00000000       4.37128804      22.06106951       0.00000000      -5.52189797
3
Lattice="10.0 0.0 0.0 0.0 10.0 0.0 0.0 0.0 10.0" Properties=species:S:1:pos:R:3:forces:R:3 energy=-155.86697664632 free_energy=-155.86697664632 stress="0.005178119070359 3.9732615550574e-20 -0.0015592641190897 3.9732615550574e-20 -0.00018741892808819 -1.5938299309768e-19 -0.0015592641190897 -1.5938299309768e-19 0.0060780930512692" pbc="T T T"
O        4.44642351       5.00000000       4.57266168       4.59201910       0.00000000       3.54317932
H        4.44642351       5.00000000       5.71710612       0.15718824       0.00000000      -4.94968407
H        5.55357649       5.00000000       4.28289388      -4.74920735      -0.00000000       1.40650475
3
Lattice="10.0 0.0 0.0 0.0 10.0 0.0 0.0 0.0 10.0" Properties=species:S:1:pos:R:3:forces:R:3 energy=-155.84789443471 free_energy=-155.84789443471 stress="0.0062645100804032 -9.859832814454e-20 -0.0015768584200046 -9.859832814454e-20 -0.00019889988141722 1.167317698496e-19 -0.0015768584200046 1.167317698496e-19 -0.0052055937773526" pbc="T T T"
O        4.41838992       5.00000000       4.71407669       5.49886996      -0.00000000      -7.82417445
H        4.41838992       5.00000000       5.58074335      -0.04030823      -0.00000000       6.47011188
H        5.58161008       5.00000000       4.41925665      -5.45856173       0.00000000       1.35406257
3
Lattice="10.0 0.0 0.0 0.0 10.0 0.0 0.0 0.0 10.0" Properties=species:S:1:pos:R:3:forces:R:3 energy=-150.1620883806 free_energy=-150.1620883806 stress="-0.024832171451528 -1.7441617021e-19 0.0068992044309613 -1.7441617021e-19 -0.00024326144745311 1.5730485345683e-19 0.0068992044309613 1.5730485345683e-19 -0.028032102640207" pbc="T T T"
O        4.65943430       5.00000000       4.73071555     -34.84275337      -0.00000000     -27.54584239
H        4.65943430       5.00000000       5.43071555      -1.47990053      -0.00000000      37.67956936
H        5.34056570       5.00000000       4.56928445      36.32265390       0.00000000     -10.13372696
3
Lattice="10.0 0.0 0.0 0.0 10.0 0.0 0.0 0.0 10.0" Properties=species:S:1:pos:R:3:forces:R:3 energy=-156.69603722181 free_energy=-156.69603722181 stress="-0.0052751693743145 -2.3039504287384e-19 0.0015290861451559 -2.3039504287384e-19 -0.00020669398806903 4.8505042261661e-20 0.0015290861451559 4.8505042261661e-20 0.00044926322631988" pbc="T T T"
O        4.57758473       5.00000000       4.60777091      -5.81868194      -0.00000000       2.66180254
H        4.57758473       5.00000000       5.58554869      -0.34499116      -0.00000000      -0.84645176
H        5.42241527       5.00000000       4.41445131       6.16367310       0.00000000      -1.81535078
3
Lattice="10.0 0.0 0.0 0.0 10.0 0.0 0.0 0.0 10.0" Properties=species:S:1:pos:R:3:forces:R:3 energy=-156.95094840454 free_energy=-156.95094840454 stress="0.00070621977655875 8.3076899840488e-20 9.4659777919409e-05 8.3076899840488e-20 -0.00019971846714544 -6.3835113738519e-21 9.4659777919409e-05 -6.3835113738519e-21 0.0007248485578062" pbc="T T T"
O        4.52179451       5.00000000       4.61275683       1.09062237       0.00000000       0.88422652
H        4.52179451       5.00000000       5.59053460      -0.26818481      -0.00000000      -0.78224694
H        5.47820549       5.00000000       4.40946540      -0.82243757      -0.00000000      -0.10197958
3
Lattice="10.0 0.0 0.0 0.0 10.0 0.0 0.0 0.0 10.0" Properties=species:S:1:pos:R:3:forces:R:3 energy=-155.31911401182 free_energy=-155.31911401182 stress="-0.0099946550788987 -4.3351796943633e-21 0.0024948940470814 -4.3351796943633e-21 -0.00020242708405084 -2.5738772204745e-20 0.0024948940470814 -2.5738772204745e-20 0.0061306726954897" pbc="T T T"
O        4.60537625       5.00000000       4.49352755     -12.46322501      -0.00000000       8.79319471
H        4.60537625       5.00000000       5.69352755      -0.11809451       0.00000000      -5.62522711
H        5.39462375       5.00000000       4.30647245      12.58131951       0.00000000      -3.16796759
3
Lattice="10.0 0.0 0.0 0.0 10.0 0.0 0.0 0.0 10.0" Properties=species:S:1:pos:R:3:forces:R:3 energy=-156.30722063963 free_energy=-156.30722063963 stress="0.0025011544916413 9.7989309330611e-20 -0.00083120081164411 9.7989309330611e-20 -0.00019192377438899 -1.2417792516899e-19 -0.00083120081164411 -1.2417792516899e-19 0.0059273046381732" pbc="T T T"
O        4.50119858       5.00000000       4.56246851       2.47687928       0.00000000       4.15093482
H        4.50119858       5.00000000       5.70691295       0.11413361       0.00000000      -4.98210874
H        5.49880142       5.00000000       4.29308705      -2.59101290      -0.00000000       0.83117392
3
Lattice="10.0 0.0 0.0 0.0 10.0 0.0 0.0 0.0 10.0" Properties=species:S:1:pos:R:3:forces:R:3 energy=-156.40749216027 free_energy=-156.40749216027 stress="0.0052297884406385 5.4991548266292e-20 -0.001520910820437 5.4991548266292e-20 -0.00019450457422808 -4.0308481280523e-20 -0.001520910820437 -4.0308481280523e-20 0.0011668101233519" pbc="T T T"
O        4.44756402       5.00000000       4.66028471       4.72386342      -0.00000000      -0.60508188
H        4.44756402       5.00000000       5.63806249       0.08528351      -0.00000000      -0.76982557
H        5.55243598       5.00000000       4.36193751      -4.80914694      -0.00000000       1.37490745
3
Lattice="10.0 0.0 0.0 0.0 10.0 0.0 0.0 0.0 10.0" Properties=species:S:1:pos:R:3:forces:R:3 energy=-155.84844759113 free_energy=-155.84844759113 stress="-0.0052832674666383 -1.3305296681304e-19 0.0013890646141156 -1.3305296681304e-19 -0.00019944482145205 3.1716229407011e-20 0.0013890646141156 3.1716229407011e-20 0.0063727537979197" pbc="T T T"
O        4.58165043       5.00000000       4.51296642      -6.24734847      -0.00000000       7.30100466
H        4.58165043       5.00000000       5.71296642       0.01482187      -0.00000000      -5.63517707
H        5.41834957       5.00000000       4.28703358       6.23252660       0.00000000      -1.66582759
3
Lattice="10.0 0.0 0.0 0.0 10.0 0.0 0.0 0.0 10.0" Properties=species:S:1:pos:R:3:forces:R:3 energy=-156.07930349143 free_energy=-156.07930349143 stress="0.006236018385498 -5.5567868867255e-20 -0.001624290684461 -5.5567868867255e-20 -0.00019542429013911 8.9804363607433e-20 -0.001624290684461 8.9804363607433e-20 -0.0015693996942451" pbc="T T T"
O        4.41838992       5.00000000       4.68629891       5.41057968      -0.00000000      -3.54601915
H        4.41838992       5.00000000       5.60852113       0.02176000      -0.00000000       2.15124541
H        5.58161008       5.00000000       4.39147887      -5.43233968       0.00000000       1.39477375
3
Lattice="10.0 0.0 0.0 0.0 10.0 0.0 0.0 0.0 10.0" Properties=species:S:1:pos:R:3:forces:R:3 energy=-155.84783449559 free_energy=-155.84783449559 stress="-0.0052386529245276 1.6962804590155e-20 0.0014133331747747 1.6962804590155e-20 -0.00019995109716419 6.7290690527403e-21 0.0014133331747747 6.7290690527403e-21 0.0063600099240924" pbc="T T T"
O        4.58345327       5.00000000       4.51944285      -6.26219657      -0.00000000       7.34893059
H        4.58345327       5.00000000       5.71944285       0.05631514      -0.00000000      -5.64675051
H        5.41654673       5.00000000       4.28055715       6.20588142      -0.00000000      -1.70218008
3
Lattice="10.0 0.0 0.0 0.0 10.0 0.0 0.0 0.0 10.0" Properties=species:S:1:pos:R:3:forces:R:3 energy=-156.16577314617 free_energy=-156.16577314617 stress="-0.0016568798413378 3.2015379953023e-20 0.00075475149899731 3.2015379953023e-20 -0.00021465011131794 -1.2648649352627e-19 0.00075475149899731 -1.2648649352627e-19 -0.01062735181959" pbc="T T T"
O        4.55675155       5.00000000       4.72154389      -1.41205121      -0.00000000     -11.96623228
H        4.55675155       5.00000000       5.53265500      -0.37246466       0.00000000      12.82182248
H        5.44324845       5.00000000       4.46734500       1.78451587      -0.00000000      -0.85559019
3
Lattice="10.0 0.0 0.0 0.0 10.0 0.0 0.0 0.0 10.0" Properties=species:S:1:pos:R:3:forces:R:3 energy=-156.37032277288 free_energy=-156.37032277288 stress="0.0040228064058548 -1.1003614528901e-20 -0.001184583043715 -1.1003614528901e-20 -0.00019130922544996 -1.456753707824e-19 -0.001184583043715 -1.456753707824e-19 0.0047268122984797" pbc="T T T"
O        4.47329616       5.00000000       4.59340626       3.79917557      -0.00000000       2.93143600
H        4.47329616       5.00000000       5.68229515       0.09851512       0.00000000      -4.05411416
H        5.52670384       5.00000000       4.31770485      -3.89769069      -0.00000000       1.12267815
3
Lattice="10.0 0.0 0.0 0.0 10.0 0.0 0.0 0.0 10.0" Properties=species:S:1:pos:R:3:forces:R:3 energy=-152.99442985314 free_energy=-152.99442985314 stress="0.0054710037390127 1.3540058545753e-20 -0.00092805001790364 1.3540058545753e-20 -0.00021222008804763 1.9927581525684e-20 -0.00092805001790364 1.9927581525684e-20 -0.026042404342932" pbc="T T T"
O        4.44219522       5.00000000       4.77764051       5.48520643      -0.00000000     -38.34538979
H        4.44219522       5.00000000       5.47764051      -0.49692919      -0.00000000      37.51494653
H        5.55780478       5.00000000       4.52235949      -4.98827725      -0.00000000       0.83044325
3
Lattice="10.0 0.0 0.0 0.0 10.0 0.0 0.0 0.0 10.0" Properties=species:S:1:pos:R:3:forces:R:3 energy=-156.11364838037 free_energy=-156.11364838037 stress="0.0062347439428039 -8.7357831596211e-20 -0.0015949912168988 -8.7357831596211e-20 -0.00019211870761981 -8.3267025140823e-20 -0.0015949912168988 -8.3267025140823e-20 0.0011112070773554" pbc="T T T"
O        4.41726397       5.00000000       4.65400518       5.37469117      -0.00000000      -0.63363862
H        4.41726397       5.00000000       5.63178296       0.04446152      -0.00000000      -0.73320053
H        5.58273603       5.00000000       4.36821704      -5.41915269       0.00000000       1.36683915
3
Lattice="10.0 0.0 0.0 0.0 10.0 0.0 0.0 0.0 10.0" Properties=species:S:1:pos:R:3:forces:R:3 energy=-156.6600491876 free_energy=-156.6600491876 stress="0.0041585499974284 -2.966608493721e-20 -0.00081400248409611 -2.966608493721e-20 -0.00019499483071547 1.1510931934031e-21 -0.00081400248409611 1.1510931934031e-21 0.00090179918727831" pbc="T T T"
O        4.46834705       5.00000000       4.62843501       4.11771418      -0.00000000      -0.01769608
H        4.46834705       5.00000000       5.60621278      -0.12682881      -0.00000000      -0.74595424
H        5.53165295       5.00000000       4.39378722      -3.99088537      -0.00000000       0.76365032
3
Lattice="10.0 0.0 0.0 0.0 10.0 0.0 0.0 0.0 10.0" Properties=species:S:1:pos:R:3:forces:R:3 energy=-156.9561186667 free_energy=-156.9561186667 stress="0.00070918961482351 8.2258468125781e-20 -9.7333309921377e-06 8.2258468125781e-20 -0.00020024320392081 -1.8544171419575e-20 -9.7333309921377e-06 -1.8544171419575e-20 0.00077847451553263" pbc="T T T"
O        4.52428917       5.00000000       4.62385665       1.01214738       0.00000000       0.80062682
H        4.52428917       5.00000000       5.60163443      -0.18236760      -0.00000000      -0.80786995
H        5.47571083       5.00000000       4.39836557      -0.82977978      -0.00000000       0.00724313
3
Lattice="10.0 0.0 0.0 0.0 10.0 0.0 0.0 0.0 10.0" Properties=species:S:1:pos:R:3:forces:R:3 energy=-151.8206283657 free_energy=-151.8206283657 stress="-0.024693983043244 -1.5041856431472e-19 0.0069302131128952 -1.5041856431472e-19 -0.00023739224581357 -9.5140098653343e-20 0.0069302131128952 -9.5140098653343e-20 -0.018935334536746" pbc="T T T"
O        4.66007065       5.00000000       4.70557710     -35.00551188      -0.00000000     -12.57877369
H        4.66007065       5.00000000       5.46113265      -1.18666528       0.00000000      22.77734066
H        5.33992935       5.00000000       4.53886735      36.19217717       0.00000000     -10.19856697
3
Lattice="10.0 0.0 0.0 0.0 10.0 0.0 0.0 0.0 10.0" Properties=species:S:1:pos:R:3:forces:R:3 energy=-156.95289063742 free_energy=-156.95289063742 stress="0.00070770500269508 1.0522037324593e-19 5.9573245017051e-05 1.0522037324593e-19 -0.00019988637033957 -2.2115303145771e-20 5.9573245017051e-05 -2.2115303145771e-20 0.0007422875381258" pbc="T T T"
O        4.52259735       5.00000000       4.61646318       1.06470556       0.00000000       0.85618038
H        4.52259735       5.00000000       5.59424096      -0.23935566      -0.00000000      -0.79078921
H        5.47740265       5.00000000       4.40575904      -0.82534990      -0.00000000      -0.06539117
3
Lattice="10.0 0.0 0.0 0.0 10.0 0.0 0.0 0.0 10.0" Properties=species:S:1:pos:R:3:forces:R:3 energy=-156.70469834274 free_energy=-156.70469834274 stress="0.00078649853533361 2.2971142852726e-19 2.0601202393096e-06 2.2971142852726e-19 -0.00020725467923943 2.163528012615e-20 2.0601202393096e-06 2.163528012615e-20 -0.0055359733090147" pbc="T T T"
O        4.52704145       5.00000000       4.69045097       1.18340657       0.00000000      -6.37051913
H        4.52704145       5.00000000       5.55711764      -0.26581987      -0.00000000       6.37570353
H        5.47295855       5.00000000       4.44288236      -0.91758670      -0.00000000      -0.00518440
3
Lattice="10.0 0.0 0.0 0.0 10.0 0.0 0.0 0.0 10.0" Properties=species:S:1:pos:R:3:forces:R:3 energy=-155.57851480902 free_energy=-155.57851480902 stress="0.0062303334948902 5.8424616533043e-20 -0.0015509957232522 5.8424616533043e-20 -0.00018460167179733 -2.2735564887825e-19 -0.0015509957232522 -2.2735564887825e-19 0.0059962337172374" pbc="T T T"
O        4.41511732       5.00000000       4.56161443       5.30079096      -0.00000000       3.60178740
H        4.41511732       5.00000000       5.70605887       0.09133879       0.00000000      -4.92574891
H        5.58488268       5.00000000       4.29394113      -5.39212975      -0.00000000       1.32396151
3
Lattice="10.0 0.0 0.0 0.0 10.0 0.0 0.0 0.0 10.0" Properties=species:S:1:pos:R:3:forces:R:3 energy=-156.3721175128 free_energy=-156.3721175128 stress="-0.0019572880937081 -1.7667733262448e-19 0.00055531404127997 -1.7667733262448e-19 -0.0001959701960332 -9.3081458633082e-20 0.00055531404127997 -9.3081458633082e-20 0.0055528613586205" pbc="T T T"
O        4.54896527       5.00000000       4.52364817      -1.95219876      -0.00000000       5.59462492
H        4.54896527       5.00000000       5.66809261      -0.13580870       0.00000000      -4.97485482
H        5.45103473       5.00000000       4.33190739       2.08800746       0.00000000      -0.61977011
3
Lattice="10.0 0.0 0.0 0.0 10.0 0.0 0.0 0.0 10.0" Properties=species:S:1:pos:R:3:forces:R:3 energy=-153.0016556886 free_energy=-153.0016556886 stress="0.0054266604854211 1.5639417028362e-19 -0.0011261948884225 1.5639417028362e-19 -0.00021266858588868 3.170117500148e-20 -0.0011261948884225 3.170117500148e-20 -0.025951066925523" pbc="T T T"
O        4.44531631       5.00000000       4.79058548       5.37028044      -0.00000000     -38.50272766
H        4.44531631       5.00000000       5.49058548      -0.39366630      -0.00000000      37.48889302
H        5.55468369       5.00000000       4.50941452      -4.97661414      -0.00000000       1.01383463
3
Lattice="10.0 0.0 0.0 0.0 10.0 0.0 0.0 0.0 10.0" Properties=species:S:1:pos:R:3:forces:R:3 energy=-154.6432254726 free_energy=-154.6432254726 stress="-0.016275635204219 -1.1106441376371e-19 0.0040987891942109 -1.1106441376371e-19 -0.00020821520195447 -1.0329005950213e-19 0.0040987891942109 -1.0329005950213e-19 0.0047657242289154" pbc="T T T"
O        4.63240527       5.00000000       4.51489933     -21.82379076      -0.00000000      10.62775302
H        4.63240527       5.00000000       5.65934377      -0.22433543       0.00000000      -5.04525800
H        5.36759473       5.00000000       4.34065623      22.04812619       0.00000000      -5.58249503
3
Lattice="10.0 0.0 0.0 0.0 10.0 0.0 0.0 0.0 10.0" Properties=species:S:1:pos:R:3:forces:R:3 energy=-156.5934470846 free_energy=-156.5934470846 stress="-0.0052847187143741 1.4381714543334e-19 0.0014804043883815 1.4381714543334e-19 -0.00020419355761048 -1.0028083566537e-19 0.0014804043883815 -1.0028083566537e-19 0.0025184232411615" pbc="T T T"
O        4.57834722       5.00000000       4.58326688      -5.95026274      -0.00000000       4.56223751
H        4.57834722       5.00000000       5.61660021      -0.23618541       0.00000000      -2.80126800
H        5.42165278       5.00000000       4.38339979       6.18644815      -0.00000000      -1.76096951
3
Lattice="10.0 0.0 0.0 0.0 10.0 0.0 0.0 0.0 10.0" Properties=species:S:1:pos:R:3:forces:R:3 energy=-156.75248213491 free_energy=-156.75248213491 stress="0.0026029473761571 6.0719439512452e-21 -0.00057198333226799 6.0719439512452e-21 -0.00019503913483187 -1.6005029515243e-19 -0.00057198333226799 -1.6005029515243e-19 0.0029500360421588" pbc="T T T"
O        4.49726015       5.00000000       4.60248487       2.73719086      -0.00000000       2.16398954
H        4.49726015       5.00000000       5.63581820      -0.06441635       0.00000000      -2.73075827
H        5.50273985       5.00000000       4.36418180      -2.67277451      -0.00000000       0.56676873
3
Lattice="10.0 0.0 0.0 0.0 10.0 0.0 0.0 0.0 10.0" Properties=species:S:1:pos:R:3:forces:R:3 energy=-156.59317716368 free_energy=-156.59317716368 stress="0.0027088511170192 1.0865790773889e-20 -0.0004177752748894 1.0865790773889e-20 -0.00020415473817103 1.2024908366619e-19 -0.0004177752748894 1.2024908366619e-19 -0.0054823256743184" pbc="T T T"
O        4.49726015       5.00000000       4.68581820       3.06547284       0.00000000      -6.84187032
H        4.49726015       5.00000000       5.55248487      -0.28403941      -0.00000000       6.42844237
H        5.50273985       5.00000000       4.44751513      -2.78143343      -0.00000000       0.41342795
3
Lattice="10.0 0.0 0.0 0.0 10.0 0.0 0.0 0.0 10.0" Properties=species:S:1:pos:R:3:forces:R:3 energy=-156.59916518237 free_energy=-156.59916518237 stress="0.0026796737200003 -1.4345149258729e-20 -0.00060965881628511 -1.4345149258729e-20 -0.00020486740366389 -2.0259993523524e-19 -0.00060965881628511 -2.0259993523524e-19 -0.0053766535011831" pbc="T T T"
O        4.50119858       5.00000000       4.70135740       2.93484776      -0.00000000      -6.99931288
H        4.50119858       5.00000000       5.56802406      -0.16083719       0.00000000       6.39020626
H        5.49880142       5.00000000       4.43197594      -2.77401057      -0.00000000       0.60910662
3
Lattice="10.0 0.0 0.0 0.0 10.0 0.0 0.0 0.0 10.0" Properties=species:S:1:pos:R:3:forces:R:3 energy=-156.17112665577 free_energy=-156.17112665577 stress="0.00081282272685962 1.7509608050007e-19 0.00020633513043873 1.7509608050007e-19 -0.00021066618413061 -2.9405023171598e-19 0.00020633513043873 -2.9405023171598e-19 -0.010539572074536" pbc="T T T"
O        4.52342893       5.00000000       4.70349653       1.44749847      -0.00000000     -12.69604142
H        4.52342893       5.00000000       5.51460764      -0.50765929       0.00000000      12.91551273
H        5.47657107       5.00000000       4.48539236      -0.93983918      -0.00000000      -0.21947131
3
Lattice="10.0 0.0 0.0 0.0 10.0 0.0 0.0 0.0 10.0" Properties=species:S:1:pos:R:3:forces:R:3 energy=-155.62134649942 free_energy=-155.62134649942 stress="0.0052881888847318 1.0113004601549e-19 -0.0015003350505336 1.0113004601549e-19 -0.00020517832906202 -2.7244631619699e-19 -0.0015003350505336 -2.7244631619699e-19 -0.010036448224532" pbc="T T T"
O        4.44994470       5.00000000       4.75217026       4.94301301      -0.00000000     -14.26834857
H        4.44994470       5.00000000       5.56328138      -0.05430737       0.00000000      12.90591910
H        5.55005530       5.00000000       4.43671862      -4.88870564      -0.00000000       1.36242947
3
Lattice="10.0 0.0 0.0 0.0 10.0 0.0 0.0 0.0 10.0" Properties=species:S:1:pos:R:3:forces:R:3 energy=-155.8654713828 free_energy=-155.8654713828 stress="0.0051530402527223 7.5959199895929e-20 -0.0016222212067263 7.5959199895929e-20 -0.00018770217883848 -2.5335048781272e-19 -0.0016222212067263 -2.5335048781272e-19 0.0061134521938138" pbc="T T T"
O        4.44756402       5.00000000       4.57695138       4.55659360      -0.00000000       3.48764176
H        4.44756402       5.00000000       5.72139583       0.17987734       0.00000000      -4.95406997
H        5.55243598       5.00000000       4.27860417      -4.73647094      -0.00000000       1.46642820
3
Lattice="10.0 0.0 0.0 0.0 10.0 0.0 0.0 0.0 10.0" Properties=species:S:1:pos:R:3:forces:R:3 energy=-155.31437430362 free_energy=-155.31437430362 stress="0.0063936906569516 -9.8098184611623e-20 -0.0011581911941053 -9.8098184611623e-20 -0.00020176625598124 -2.3581817818024e-19 -0.0011581911941053 -2.3581817818024e-19 -0.010301978657854" pbc="T T T"
O        4.41311144       5.00000000       4.71919146       5.79352540      -0.00000000     -13.98542534
H        4.41311144       5.00000000       5.53030257      -0.27254255       0.00000000      13.00034140
H        5.58688856       5.00000000       4.46969743      -5.52098285       0.00000000       0.98508393
3
Lattice="10.0 0.0 0.0 0.0 10.0 0.0 0.0 0.0 10.0" Properties=species:S:1:pos:R:3:forces:R:3 energy=-153.55114390748 free_energy=-153.55114390748 stress="0.00085390829556205 1.9119472577348e-19 0.00037824082324163 1.9119472577348e-19 -0.00021945169078129 2.3982929716749e-20 0.00037824082324163 2.3982929716749e-20 -0.026340172659903" pbc="T T T"
O        4.52259735       5.00000000       4.75535207       1.82301045       0.00000000     -37.10903620
H        4.52259735       5.00000000       5.45535207      -0.83888189      -0.00000000      37.50808645
H        5.47740265       5.00000000       4.54464793      -0.98412856      -0.00000000      -0.39905025
3
Lattice="10.0 0.0 0.0 0.0 10.0 0.0 0.0 0.0 10.0" Properties=species:S:1:pos:R:3:forces:R:3 energy=-156.121321427 free_energy=-156.121321427 stress="0.0053053066635677 9.1223750111054e-20 -0.0012022911366182 9.1223750111054e-20 -0.00018809441913639 -1.8816773089639e-19 -0.0012022911366182 -1.8816773089639e-19 0.004632154363471" pbc="T T T"
O        4.44122190       5.00000000       4.57886536       4.80847487      -0.00000000       2.93765746
H        4.44122190       5.00000000       5.66775425       0.01051375       0.00000000      -4.01151486
H        5.55877810       5.00000000       4.33224575      -4.81898862      -0.00000000       1.07385741
3
Lattice="10.0 0.0 0.0 0.0 10.0 0.0 0.0 0.0 10.0" Properties=species:S:1:pos:R:3:forces:R:3 energy=-156.63055079211 free_energy=-156.63055079211 stress="-0.0018855873988655 -2.7730285205432e-19 0.00052805984817029 -2.7730285205432e-19 -0.00019890386852206 -8.560895558116e-20 0.00052805984817029 -8.560895558116e-20 0.0043289632572233" pbc="T T T"
O        4.55302188       5.00000000       4.56884289      -1.96293778      -0.00000000       4.70616879
H        4.55302188       5.00000000       5.65773178      -0.06418172       0.00000000      -4.11125724
H        5.44697812       5.00000000       4.34226822       2.02711951       0.00000000      -0.59491155
3
Lattice="10.0 0.0 0.0 0.0 10.0 0.0 0.0 0.0 10.0" Properties=species:S:1:pos:R:3:forces:R:3 energy=-155.84523133636 free_energy=-155.84523133636 stress="0.006351386509485 -4.3330285903108e-20 -0.0012842079863358 -4.3330285903108e-20 -0.00019802393724474 -1.5771401674135e-19 -0.0012842079863358 -1.5771401674135e-19 -0.0053525638862464" pbc="T T T"
O        4.41409675       5.00000000       4.69596239       5.65173453      -0.00000000      -7.59594640
H        4.41409675       5.00000000       5.56262905      -0.15944763       0.00000000       6.50169971
H        5.58590325       5.00000000       4.43737095      -5.49228690       0.00000000       1.09424669
3
Lattice="10.0 0.0 0.0 0.0 10.0 0.0 0.0 0.0 10.0" Properties=species:S:1:pos:R:3:forces:R:3 energy=-156.62791516409 free_energy=-156.62791516409 stress="-0.0019119412890836 -1.2539174786847e-19 0.00057118177878682 -1.2539174786847e-19 -0.00019827811543937 -1.4183172572203e-19 0.00057118177878682 -1.4183172572203e-19 0.0043023557260353" pbc="T T T"
O        4.55050683       5.00000000       4.55841150      -1.90631008      -0.00000000       4.72875104
H        4.55050683       5.00000000       5.64730039      -0.13875493       0.00000000      -4.08919384
H        5.44949317       5.00000000       4.35269961       2.04506501       0.00000000      -0.63955720
3
Lattice="10.0 0.0 0.0 0.0 10.0 0.0 0.0 0.0 10.0" Properties=species:S:1:pos:R:3:forces:R:3 energy=-155.21104229616 free_energy=-155.21104229616 stress="-0.016072546937122 -1.3329514968566e-19 0.0044631113200624 -1.3329514968566e-19 -0.00021536771554634 6.1696227021225e-20 0.0044631113200624 6.1696227021225e-20 -0.0002763111441319" pbc="T T T"
O        4.63380106       5.00000000       4.60392483     -21.43488576      -0.00000000       7.01253188
H        4.63380106       5.00000000       5.58170261      -0.41565779      -0.00000000      -0.91208701
H        5.36619894       5.00000000       4.41829739      21.85054355       0.00000000      -6.10044487
3
Lattice="10.0 0.0 0.0 0.0 10.0 0.0 0.0 0.0 10.0" Properties=species:S:1:pos:R:3:forces:R:3 energy=-155.11095577453 free_energy=-155.11095577453 stress="0.0027390944471985 1.7592093609819e-20 -0.00057841735587623 1.7592093609819e-20 -0.00021315145108338 -9.9263472933432e-20 -0.00057841735587623 -9.9263472933432e-20 -0.016951394041155" pbc="T T T"
O        4.50334812       5.00000000       4.76463486       3.15938301      -0.00000000     -23.23444100
H        4.50334812       5.00000000       5.52019041      -0.31071608       0.00000000      22.65409586
H        5.49665188       5.00000000       4.47980959      -2.84866693       0.00000000       0.58034514
3
Lattice="10.0 0.0 0.0 0.0 10.0 0.0 0.0 0.0 10.0" Properties=species:S:1:pos:R:3:forces:R:3 energy=-156.07904190516 free_energy=-156.07904190516 stress="0.0062103516368835 -1.4010831838902e-20 -0.0016956295470225 -1.4010831838902e-20 -0.00019567281659692 1.1525649460224e-20 -0.0016956295470225 1.1525649460224e-20 -0.0015305231251225" pbc="T T T"
O        4.41955087       5.00000000       4.69080599       5.37153240       0.00000000      -3.60294782
H        4.41955087       5.00000000       5.61302821       0.04968640      -0.00000000       2.14389453
H        5.58044913       5.00000000       4.38697179      -5.42121880      -0.00000000       1.45905329
3
Lattice="10.0 0.0 0.0 0.0 10.0 0.0 0.0 0.0 10.0" Properties=species:S:1:pos:R:3:forces:R:3 energy=-154.33959142779 free_energy=-154.33959142779 stress="-0.016474150686586 -8.0041941682262e-20 0.0037646979224755 -8.0041941682262e-20 -0.00020608397236086 2.7669067164668e-20 0.0037646979224755 2.7669067164668e-20 0.0058963859530975" pbc="T T T"
O        4.63047757       5.00000000       4.47854442     -21.97234956      -0.00000000      10.71719129
H        4.63047757       5.00000000       5.67854442      -0.23049935      -0.00000000      -5.61561548
H        5.36952243       5.00000000       4.32145558      22.20284891       0.00000000      -5.10157581
3
Lattice="10.0 0.0 0.0 0.0 10.0 0.0 0.0 0.0 10.0" Properties=species:S:1:pos:R:3:forces:R:3 energy=-154.95882653183 free_energy=-154.95882653183 stress="-0.0051150487875548 2.4518045480701e-21 0.0018373614252782 2.4518045480701e-21 -0.00022244072879807 -1.0140029968111e-19 0.0018373614252782 -1.0140029968111e-19 -0.017602951580355" pbc="T T T"
O        4.57913509       5.00000000       4.72542350      -5.19567882      -0.00000000     -20.49509490
H        4.57913509       5.00000000       5.48097905      -0.79583069       0.00000000      22.68298036
H        5.42086491       5.00000000       4.51902095       5.99150951       0.00000000      -2.18788546
3
Lattice="10.0 0.0 0.0 0.0 10.0 0.0 0.0 0.0 10.0" Properties=species:S:1:pos:R:3:forces:R:3 energy=-155.84827796615 free_energy=-155.84827796615 stress="-0.0053267034306148 -1.2066142754891e-19 0.001364497761691 -1.2066142754891e-19 -0.00019896355233643 4.4836824002832e-20 0.001364497761691 4.4836824002832e-20 0.0063841193179082" pbc="T T T"
O        4.57994828       5.00000000       4.50646279      -6.23175224      -0.00000000       7.25311560
H        4.57994828       5.00000000       5.70646279      -0.02729587      -0.00000000      -5.62328836
H        5.42005172       5.00000000       4.29353721       6.25904811       0.00000000      -1.62982724
3
Lattice="10.0 0.0 0.0 0.0 10.0 0.0 0.0 0.0 10.0" Properties=species:S:1:pos:R:3:forces:R:3 energy=-156.4381698618 free_energy=-156.4381698618 stress="-0.0052386306291079 -5.1338762379244e-20 0.0016563026530269 -5.1338762379244e-20 -0.00021346692042294 1.054654023579e-19 0.0016563026530269 1.054654023579e-19 -0.0059355133800135" pbc="T T T"
O        4.57684765       5.00000000       4.66004691      -5.51382004      -0.00000000      -4.42750616
H        4.57684765       5.00000000       5.52671358      -0.59419589      -0.00000000       6.38985298
H        5.42315235       5.00000000       4.47328642       6.10801593      -0.00000000      -1.96234682
3
Lattice="10.0 0.0 0.0 0.0 10.0 0.0 0.0 0.0 10.0" Properties=species:S:1:pos:R:3:forces:R:3 energy=-156.01642393227 free_energy=-156.01642393227 stress="0.0025455417380073 4.0959944291086e-20 -0.00058887309464386 4.0959944291086e-20 -0.00018872718275261 -5.8482980402795e-20 -0.00058887309464386 -5.8482980402795e-20 0.0067953355978449" pbc="T T T"
O        4.49547220       5.00000000       4.51133798       2.59847271      -0.00000000       4.97964736
H        4.49547220       5.00000000       5.71133798       0.00595900      -0.00000000      -5.56103274
H        5.50452780       5.00000000       4.28866202      -2.60443171      -0.00000000       0.58138538
3
Lattice="10.0 0.0 0.0 0.0 10.0 0.0 0.0 0.0 10.0" Properties=species:S:1:pos:R:3:forces:R:3 energy=-156.82544476961 free_energy=-156.82544476961 stress="0.0026489672141884 -4.4751384688663e-20 -0.00061812086251981 -4.4751384688663e-20 -0.00020125318336417 1.168195175175e-19 -0.00061812086251981 1.168195175175e-19 -0.0017605757682267" pbc="T T T"
O        4.50016880       5.00000000       4.66970639       2.84435137       0.00000000      -2.69663431
H        4.50016880       5.00000000       5.59192861      -0.10800213      -0.00000000       2.08033894
H        5.49983120       5.00000000       4.40807139      -2.73634923       0.00000000       0.61629537
3
Lattice="10.0 0.0 0.0 0.0 10.0 0.0 0.0 0.0 10.0" Properties=species:S:1:pos:R:3:forces:R:3 energy=-156.07433134721 free_energy=-156.07433134721 stress="0.0027258648598204 -2.2170704252202e-20 -0.00050174796296396 -2.2170704252202e-20 -0.00020853493805861 -1.5324652464718e-19 -0.00050174796296396 -1.5324652464718e-19 -0.010332499829295" pbc="T T T"
O        4.50016880       5.00000000       4.72526195       3.10761585      -0.00000000     -13.39380539
H        4.50016880       5.00000000       5.53637306      -0.29158096       0.00000000      12.89390367
H        5.49983120       5.00000000       4.46362694      -2.81603489      -0.00000000       0.49990172
3
Lattice="10.0 0.0 0.0 0.0 10.0 0.0 0.0 0.0 10.0" Properties=species:S:1:pos:R:3:forces:R:3 energy=-155.93158323657 free_energy=-155.93158323657 stress="-0.0051078317243972 -1.8816348295749e-19 0.0017652183359118 -1.8816348295749e-19 -0.00021793245277076 -1.8903306847995e-19 0.0017652183359118 -1.8903306847995e-19 -0.010895953517992" pbc="T T T"
O        4.57994828       5.00000000       4.70090724      -5.39381834      -0.00000000     -10.74866460
H        4.57994828       5.00000000       5.51201835      -0.60236621       0.00000000      12.85503848
H        5.42005172       5.00000000       4.48798165       5.99618456       0.00000000      -2.10637388
3
Lattice="10.0 0.0 0.0 0.0 10.0 0.0 0.0 0.0 10.0" Properties=species:S:1:pos:R:3:forces:R:3 energy=-155.84823813686 free_energy=-155.84823813686 stress="-0.0052611076974295 -4.620229324245e-20 0.001401236931549 -4.620229324245e-20 -0.00019969484518664 -4.4218575377926e-20 0.001401236931549 -4.4218575377926e-20 0.0063665584815657" pbc="T T T"
O        4.58253929       5.00000000       4.51620813      -6.25486844      -0.00000000       7.32496120
H        4.58253929       5.00000000       5.71620813       0.03564700      -0.00000000      -5.64100229
H        5.41746071       5.00000000       4.28379187       6.21922144       0.00000000      -1.68395891
3
Lattice="10.0 0.0 0.0 0.0 10.0 0.0 0.0 0.0 10.0" Properties=species:S:1:pos:R:3:forces:R:3 energy=-155.92780371635 free_energy=-155.92780371635 stress="-0.0097905389054473 -1.8235139642496e-19 0.0028997261930994 -1.8235139642496e-19 -0.00021788577037508 1.427447093645e-19 0.0028997261930994 1.427447093645e-19 -0.006242876519563" pbc="T T T"
O        4.60611361       5.00000000       4.66325247     -11.74708396      -0.00000000      -2.65777966
H        4.60611361       5.00000000       5.52991914      -0.59434553      -0.00000000       6.34469412
H        5.39388639       5.00000000       4.47008086      12.34142949       0.00000000      -3.68691446
3
Lattice="10.0 0.0 0.0 0.0 10.0 0.0 0.0 0.0 10.0" Properties=species:S:1:pos:R:3:forces:R:3 energy=-153.26047883539 free_energy=-153.26047883539 stress="0.0042666797174253 -4.4499858107124e-20 -0.00076974218972936 -4.4499858107124e-20 -0.00021456101053934 2.4431602320419e-20 -0.00076974218972936 2.4431602320419e-20 -0.026035142200219" pbc="T T T"
O        4.47224270       5.00000000       4.78376094       4.61677182       0.00000000     -38.20793897
H        4.47224270       5.00000000       5.48376094      -0.48344586      -0.00000000      37.48008708
H        5.52775730       5.00000000       4.51623906      -4.13332597       0.00000000       0.72785189
3
Lattice="10.0 0.0 0.0 0.0 10.0 0.0 0.0 0.0 10.0" Properties=species:S:1:pos:R:3:forces:R:3 energy=-152.77358981516 free_energy=-152.77358981516 stress="-0.0099038582475413 -1.1087445695648e-19 0.0030380805262589 -1.1087445695648e-19 -0.00023217984530444 7.1542189291776e-20 0.0030380805262589 7.1542189291776e-20 -0.026978309654574" pbc="T T T"
O        4.60397280       5.00000000       4.73739433     -11.16894419       0.00000000     -33.72211694
H        4.60397280       5.00000000       5.43739433      -1.24213632      -0.00000000      37.56321703
H        5.39602720       5.00000000       4.56260567      12.41108051       0.00000000      -3.84110010
3
Lattice="10.0 0.0 0.0 0.0 10.0 0.0 0.0 0.0 10.0" Properties=species:S:1:pos:R:3:forces:R:3 energy=-156.68534124333 free_energy=-156.68534124333 stress="-0.0050678442283265 -1.8938143012051e-20 0.0016547338415474 -1.8938143012051e-20 -0.00021077688910842 1.067483227635e-19 0.0016547338415474 1.067483227635e-19 -0.0023110912593733" pbc="T T T"
O        4.58345327       5.00000000       4.65833174      -5.76047334       0.00000000       0.01758179
H        4.58345327       5.00000000       5.58055397      -0.24062500      -0.00000000       1.97410602
H        5.41654673       5.00000000       4.41944603       6.00109835       0.00000000      -1.99168781
3
Lattice="10.0 0.0 0.0 0.0 10.0 0.0 0.0 0.0 10.0" Properties=species:S:1:pos:R:3:forces:R:3 energy=-156.07756503751 free_energy=-156.07756503751 stress="0.0063465238018498 -5.2588841178101e-20 -0.0012571760363646 -5.2588841178101e-20 -0.00019427865900732 7.8141122081324e-20 -0.0012571760363646 7.8141122081324e-20 -0.0017518649774527" pbc="T T T"
O        4.41311144       5.00000000       4.66363590       5.59793962      -0.00000000      -3.25661546
H        4.41311144       5.00000000       5.58585813      -0.12085742      -0.00000000       2.18733961
H        5.58688856       5.00000000       4.41414187      -5.47708220       0.00000000       1.06927585
3
Lattice="10.0 0.0 0.0 0.0 10.0 0.0 0.0 0.0 10.0" Properties=species:S:1:pos:R:3:forces:R:3 energy=-156.96044146195 free_energy=-156.96044146195 stress="0.00070460576991751 1.9595760181489e-19 -0.00017734996775013 1.9595760181489e-19 -0.00020125604744329 -1.9310534079531e-20 -0.00017734996775013 -1.9310534079531e-20 0.00087640173311741" pbc="T T T"
O        4.52901868       5.00000000       4.64221772       0.87682985       0.00000000       0.66530858
H        4.52901868       5.00000000       5.61999550      -0.04383193      -0.00000000      -0.85059969
H        5.47098132       5.00000000       4.38000450      -0.83299792      -0.00000000       0.18529111
3
Lattice="10.0 0.0 0.0 0.0 10.0 0.0 0.0 0.0 10.0" Properties=species:S:1:pos:R:3:forces:R:3 energy=-156.75100978559 free_energy=-156.75100978559 stress="0.0026186058914819 5.0228341646208e-20 -0.00047567293876896 5.0228341646208e-20 -0.00019461294465384 -1.2924150435916e-19 -0.00047567293876896 -1.2924150435916e-19 0.0029006819540445" pbc="T T T"
O        4.49547220       5.00000000       4.59467132       2.79680592      -0.00000000       2.24707680
H        4.49547220       5.00000000       5.62800465      -0.11810311       0.00000000      -2.71633885
H        5.50452780       5.00000000       4.37199535      -2.67870281       0.00000000       0.46926205
3
Lattice="10.0 0.0 0.0 0.0 10.0 0.0 0.0 0.0 10.0" Properties=species:S:1:pos:R:3:forces:R:3 energy=-155.81940433424 free_energy=-155.81940433424 stress="0.0039175301985092 5.3511499230954e-20 -0.0014038302060653 5.3511499230954e-20 -0.00018857554850094 -1.1785526982844e-19 -0.0014038302060653 -1.1785526982844e-19 0.0071109428980564" pbc="T T T"
O        4.47664641       5.00000000       4.55006923       3.60950593       0.00000000       4.24562747
H        4.47664641       5.00000000       5.75006923       0.21142005      -0.00000000      -5.58495324
H        5.52335359       5.00000000       4.24993077      -3.82092597      -0.00000000       1.33932577
3
Lattice="10.0 0.0 0.0 0.0 10.0 0.0 0.0 0.0 10.0" Properties=species:S:1:pos:R:3:forces:R:3 energy=-153.33052073833 free_energy=-153.33052073833 stress="-0.0050175466088044 -1.6241138393395e-19 0.0019433510270637 -1.6241138393395e-19 -0.00022723808917595 1.0974355292005e-19 0.0019433510270637 1.0974355292005e-19 -0.026747788659897" pbc="T T T"
O        4.58165043       5.00000000       4.76296642      -5.03852728       0.00000000     -35.13157197
H        4.58165043       5.00000000       5.46296642      -0.87098496      -0.00000000      37.45913588
H        5.41834957       5.00000000       4.53703358       5.90951223       0.00000000      -2.32756390
3
Lattice="10.0 0.0 0.0 0.0 10.0 0.0 0.0 0.0 10.0" Properties=species:S:1:pos:R:3:forces:R:3 energy=-153.32090394909 free_energy=-153.32090394909 stress="-0.024578336947687 -1.6120644564139e-19 0.0068711950846548 -1.6120644564139e-19 -0.00022725088163211 -1.9995340694724e-19 0.0068711950846548 -1.9995340694724e-19 -0.0072816718608516" pbc="T T T"
O        4.66072745       5.00000000       4.65265585     -35.33730578      -0.00000000       3.78940951
H        4.66072745       5.00000000       5.51932251      -0.76341732       0.00000000       6.34246989
H        5.33927255       5.00000000       4.48067749      36.10072310       0.00000000     -10.13187940
3
Lattice="10.0 0.0 0.0 0.0 10.0 0.0 0.0 0.0 10.0" Properties=species:S:1:pos:R:3:forces:R:3 energy=-153.31538115705 free_energy=-153.31538115705 stress="-0.005106943787384 -1.93137556959e-20 0.0019204043569346 -1.93137556959e-20 -0.00022721715284688 6.2862094237075e-20 0.0019204043569346 6.2862094237075e-20 -0.026721921123199" pbc="T T T"
O        4.57913509       5.00000000       4.75320127      -4.99832528       0.00000000     -35.20822389
H        4.57913509       5.00000000       5.45320127      -0.98187448      -0.00000000      37.49461292
H        5.42086491       5.00000000       4.54679873       5.98019976       0.00000000      -2.28638903
3
Lattice="10.0 0.0 0.0 0.0 10.0 0.0 0.0 0.0 10.0" Properties=species:S:1:pos:R:3:forces:R:3 energy=-156.62661131387 free_energy=-156.62661131387 stress="-0.0019210170976578 -1.3778459187504e-19 0.00058585235516025 -1.3778459187504e-19 -0.00019808308506372 -1.5494596308498e-19 0.00058585235516025 -1.5494596308498e-19 0.0042937000928525" pbc="T T T"
O        4.54972250       5.00000000       4.55492171      -1.88758888      -0.00000000       4.73648341
H        4.54972250       5.00000000       5.64381060      -0.16399067       0.00000000      -4.08174471
H        5.45027750       5.00000000       4.35618940       2.05157956       0.00000000      -0.65473870
3
Lattice="10.0 0.0 0.0 0.0 10.0 0.0 0.0 0.0 10.0" Properties=species:S:1:pos:R:3:forces:R:3 energy=-155.16963839727 free_energy=-155.16963839727 stress="-0.016310347798267 -7.983680253027e-20 0.0041786049699202 -7.983680253027e-20 -0.00021839953716258 1.5671234771628e-19 0.0041786049699202 1.5671234771628e-19 -0.0028456888556802" pbc="T T T"
O        4.63109795       5.00000000       4.62029731     -21.36744662       0.00000000       3.63514043
H        4.63109795       5.00000000       5.54251953      -0.64377956      -0.00000000       2.03480944
H        5.36890205       5.00000000       4.45748047      22.01122618       0.00000000      -5.66994987
3
Lattice="10.0 0.0 0.0 0.0 10.0 0.0 0.0 0.0 10.0" Properties=species:S:1:pos:R:3:forces:R:3 energy=-155.32015449422 free_energy=-155.32015449422 stress="-0.0099558835110293 -2.1912546187061e-19 0.0025415912268775 -2.1912546187061e-19 -0.00020263696620175 -6.3913306944772e-20 0.0025415912268775 -6.3913306944772e-20 0.0061085241586708" pbc="T T T"
O        4.60611361       5.00000000       4.49658581     -12.45842716      -0.00000000       8.86505301
H        4.60611361       5.00000000       5.69658581      -0.09713430      -0.00000000      -5.63187758
H        5.39388639       5.00000000       4.30341419      12.55556146       0.00000000      -3.23317542
3
Lattice="10.0 0.0 0.0 0.0 10.0 0.0 0.0 0.0 10.0" Properties=species:S:1:pos:R:3:forces:R:3 energy=-155.82296426694 free_energy=-155.82296426694 stress="0.0039597054812677 4.7750347037932e-21 -0.0012970474966268 4.7750347037932e-21 -0.00018799045264305 -2.8917206723076e-20 -0.0012970474966268 -2.8917206723076e-20 0.0070480971746187" pbc="T T T"
O        4.47438130       5.00000000       4.54193217       3.67537556       0.00000000       4.34531108
H        4.47438130       5.00000000       5.74193217       0.16885403      -0.00000000      -5.57721218
H        5.52561870       5.00000000       4.25806783      -3.84422959       0.00000000       1.23190110
3
Lattice="10.0 0.0 0.0 0.0 10.0 0.0 0.0 0.0 10.0" Properties=species:S:1:pos:R:3:forces:R:3 energy=-155.87995556145 free_energy=-155.87995556145 stress="-0.0097376537071763 -4.4005117042922e-20 0.0028126691180855 -4.4005117042922e-20 -0.00020681467278753 -1.3513495754652e-19 0.0028126691180855 -1.3513495754652e-19 0.003746206171336" pbc="T T T"
O        4.60929959       5.00000000       4.56431445     -12.26735457      -0.00000000       7.78582242
H        4.60929959       5.00000000       5.65320334      -0.11088741       0.00000000      -4.17963177
H        5.39070041       5.00000000       4.34679666      12.37824199       0.00000000      -3.60619065
3
Lattice="10.0 0.0 0.0 0.0 10.0 0.0 0.0 0.0 10.0" Properties=species:S:1:pos:R:3:forces:R:3 energy=-156.3093456995 free_energy=-156.3093456995 stress="0.0025360266452805 2.4187009886217e-20 -0.0006954769178089 2.4187009886217e-20 -0.00019113934101386 -1.819390131471e-19 -0.0006954769178089 -1.819390131471e-19 0.0058503409280096" pbc="T T T"
O        4.49819953       5.00000000       4.55082545       2.56536230       0.00000000       4.27510906
H        4.49819953       5.00000000       5.69526989       0.04459050       0.00000000      -4.96599402
H        5.50180047       5.00000000       4.30473011      -2.60995280      -0.00000000       0.69088496
3
Lattice="10.0 0.0 0.0 0.0 10.0 0.0 0.0 0.0 10.0" Properties=species:S:1:pos:R:3:forces:R:3 energy=-154.44803957159 free_energy=-154.44803957159 stress="-0.01594530142578 -1.2075104726005e-19 0.0047963252307488 -1.2075104726005e-19 -0.00022699303704081 -1.6175057222584e-19 0.0047963252307488 -1.6175057222584e-19 -0.011706931674009" pbc="T T T"
O        4.63453203       5.00000000       4.69009595     -20.92014894      -0.00000000      -6.28118702
H        4.63453203       5.00000000       5.50120706      -0.79195064       0.00000000      12.84894251
H        5.36546797       5.00000000       4.49879294      21.71209958       0.00000000      -6.56775549
3
Lattice="10.0 0.0 0.0 0.0 10.0 0.0 0.0 0.0 10.0" Properties=species:S:1:pos:R:3:forces:R:3 energy=-156.93202512315 free_energy=-156.93202512315 stress="-0.0017949777727478 3.0013213460056e-20 0.00059675722899928 3.0013213460056e-20 -0.0002040107668566 2.253032765294e-20 0.00059675722899928 2.253032765294e-20 0.00067628882340176" pbc="T T T"
O        4.55483315       5.00000000       4.63131897      -1.79781897       0.00000000       1.54343531
H        4.55483315       5.00000000       5.60909674      -0.13598418      -0.00000000      -0.86892170
H        5.44516685       5.00000000       4.39090326       1.93380315      -0.00000000      -0.67451360
3
Lattice="10.0 0.0 0.0 0.0 10.0 0.0 0.0 0.0 10.0" Properties=species:S:1:pos:R:3:forces:R:3 energy=-154.97972930586 free_energy=-154.97972930586 stress="-0.0049722890078836 1.2463839291676e-19 0.001875566864643 1.2463839291676e-19 -0.00022267260187893 -1.5368579771893e-19 0.001875566864643 -1.5368579771893e-19 -0.017640027657583" pbc="T T T"
O        4.58345327       5.00000000       4.74166508      -5.25876478       0.00000000     -20.36606210
H        4.58345327       5.00000000       5.49722063      -0.62376759       0.00000000      22.62249654
H        5.41654673       5.00000000       4.50277937       5.88253237      -0.00000000      -2.25643444
3
Lattice="10.0 0.0 0.0 0.0 10.0 0.0 0.0 0.0 10.0" Properties=species:S:1:pos:R:3:forces:R:3 energy=-155.16488466253 free_energy=-155.16488466253 stress="-0.016372048708612 -1.6313342188672e-19 0.004087185692199 -1.6313342188672e-19 -0.00021835982399661 1.1074801365526e-19 0.004087185692199 1.1074801365526e-19 -0.0028057477220014" pbc="T T T"
O        4.63047757       5.00000000       4.61743331     -21.38449653       0.00000000       3.49003008
H        4.63047757       5.00000000       5.53965553      -0.67339067      -0.00000000       2.04671588
H        5.36952243       5.00000000       4.46034447      22.05788720       0.00000000      -5.53674597
3
Lattice="10.0 0.0 0.0 0.0 10.0 0.0 0.0 0.0 10.0" Properties=species:S:1:pos:R:3:forces:R:3 energy=-156.67902989578 free_energy=-156.67902989578 stress="-0.001728827703878 -1.2126784235537e-19 0.00073385248914849 -1.2126784235537e-19 -0.00021031896241101 6.1044404416707e-20 0.00073385248914849 6.1044404416707e-20 -0.0057138898944818" pbc="T T T"
O        4.55391409       5.00000000       4.68341777      -1.50664595      -0.00000000      -5.52612751
H        4.55391409       5.00000000       5.55008444      -0.34783709      -0.00000000       6.35287661
H        5.44608591       5.00000000       4.44991556       1.85448303       0.00000000      -0.82674909
3
Lattice="10.0 0.0 0.0 0.0 10.0 0.0 0.0 0.0 10.0" Properties=species:S:1:pos:R:3:forces:R:3 energy=-155.42377580494 free_energy=-155.42377580494 stress="-0.0095846399826442 -2.4484059698738e-20 0.0031462685440735 -2.4484059698738e-20 -0.00022236880567271 -2.3548804319355e-19 0.0031462685440735 -2.3548804319355e-19 -0.011292773591496" pbc="T T T"
O        4.60929959       5.00000000       4.70320334     -11.56252105      -0.00000000      -8.78208516
H        4.60929959       5.00000000       5.51431445      -0.61371195       0.00000000      12.81436960
H        5.39070041       5.00000000       4.48568555      12.17623300       0.00000000      -4.03228443
3
Lattice="10.0 0.0 0.0 0.0 10.0 0.0 0.0 0.0 10.0" Properties=species:S:1:pos:R:3:forces:R:3 energy=-156.40233955619 free_energy=-156.40233955619 stress="-0.0052487999584541 1.1246282946628e-19 0.0014602266688063 1.1246282946628e-19 -0.00020256793090851 -2.1887956327657e-19 0.0014602266688063 -2.1887956327657e-19 0.0041090107469784" pbc="T T T"
O        4.58078674       5.00000000       4.56527346      -6.08311544      -0.00000000       5.88884587
H        4.58078674       5.00000000       5.65416235      -0.09641573       0.00000000      -4.14163777
H        5.41921326       5.00000000       4.34583765       6.17953117      -0.00000000      -1.74720809
3
Lattice="10.0 0.0 0.0 0.0 10.0 0.0 0.0 0.0 10.0" Properties=species:S:1:pos:R:3:forces:R:3 energy=-156.65897578885 free_energy=-156.65897578885 stress="0.0041703764603216 -3.9658490707728e-20 -0.00075398808883719 -3.9658490707728e-20 -0.00019479224301246 -9.1714351366893e-20 -0.00075398808883719 -9.1714351366893e-20 0.00087316258749306" pbc="T T T"
O        4.46745297       5.00000000       4.62430748       4.15047570      -0.00000000       0.03249928
H        4.46745297       5.00000000       5.60208525      -0.15529679      -0.00000000      -0.73848534
H        5.53254703       5.00000000       4.39791475      -3.99517891       0.00000000       0.70598606
3
Lattice="10.0 0.0 0.0 0.0 10.0 0.0 0.0 0.0 10.0" Properties=species:S:1:pos:R:3:forces:R:3 energy=-156.37199705621 free_energy=-156.37199705621 stress="0.0040890766961147 1.3715370713705e-20 -0.00095596861417295 1.3715370713705e-20 -0.00019030364697335 -1.1162444154543e-19 -0.00095596861417295 -1.1162444154543e-19 0.0046043127656182" pbc="T T T"
O        4.46927312       5.00000000       4.57699992       3.93063537      -0.00000000       3.13216497
H        4.46927312       5.00000000       5.66588881      -0.00062853      -0.00000000      -4.03080894
H        5.53072688       5.00000000       4.33411119      -3.93000683      -0.00000000       0.89864397
3
Lattice="10.0 0.0 0.0 0.0 10.0 0.0 0.0 0.0 10.0" Properties=species:S:1:pos:R:3:forces:R:3 energy=-156.07961401697 free_energy=-156.07961401697 stress="-0.0019490090015652 -1.3281228464192e-19 0.00046302269998399 -1.3281228464192e-19 -0.00019522736460219 1.4632158064365e-20 0.00046302269998399 1.4632158064365e-20 0.0065957022804578" pbc="T T T"
O        4.55215657       5.00000000       4.50981674      -2.08910226      -0.00000000       6.12327956
H        4.55215657       5.00000000       5.70981674      -0.00387263      -0.00000000      -5.60219450
H        5.44784343       5.00000000       4.29018326       2.09297489       0.00000000      -0.52108506
3
Lattice="10.0 0.0 0.0 0.0 10.0 0.0 0.0 0.0 10.0" Properties=species:S:1:pos:R:3:forces:R:3 energy=-151.79105200432 free_energy=-151.79105200432 stress="-0.016384042032941 -1.8137095005454e-19 0.0044717623321896 -1.8137095005454e-19 -0.00023778762252968 1.1899849465913e-19 0.0044717623321896 1.1899849465913e-19 -0.027316641979455" pbc="T T T"
O        4.63047757       5.00000000       4.72854442     -20.62327302       0.00000000     -31.57897075
H        4.63047757       5.00000000       5.42854442      -1.43811978      -0.00000000      37.63509746
H        5.36952243       5.00000000       4.57145558      22.06139280       0.00000000      -6.05612671
3
Lattice="10.0 0.0 0.0 0.0 10.0 0.0 0.0 0.0 10.0" Properties=species:S:1:pos:R:3:forces:R:3 energy=-153.55260886048 free_energy=-153.55260886048 stress="-0.024380428298623 -1.3124330552572e-19 0.0070804788706259 -1.3124330552572e-19 -0.00022328428500887 1.5514516320471e-19 0.0070804788706259 1.5514516320471e-19 -0.0037648309670927" pbc="T T T"
O        4.66210227       5.00000000       4.63013100     -35.39658966       0.00000000       8.51965105
H        4.66210227       5.00000000       5.55235322      -0.56143373      -0.00000000       1.96337269
H        5.33789773       5.00000000       4.44764678      35.95802339       0.00000000     -10.48302374
3
Lattice="10.0 0.0 0.0 0.0 10.0 0.0 0.0 0.0 10.0" Properties=species:S:1:pos:R:3:forces:R:3 energy=-152.69931130759 free_energy=-152.69931130759 stress="-0.02487262259992 -1.4920302188693e-19 0.0061418818235976 -1.4920302188693e-19 -0.0002108695586498 8.8282843784547e-21 0.0061418818235976 8.8282843784547e-21 0.0052770138857398" pbc="T T T"
O        4.65943430       5.00000000       4.48071555     -36.19236937      -0.00000000      14.67092208
H        4.65943430       5.00000000       5.68071555      -0.21956139      -0.00000000      -5.64625849
H        5.34056570       5.00000000       4.31928445      36.41193076       0.00000000      -9.02466360
3
Lattice="10.0 0.0 0.0 0.0 10.0 0.0 0.0 0.0 10.0" Properties=species:S:1:pos:R:3:forces:R:3 energy=-153.455616068 free_energy=-153.455616068 stress="0.0027954147035272 -4.1503391485634e-21 -0.00027758954471076 -4.1503391485634e-21 -0.00021676931680799 8.5534067082537e-20 -0.00027758954471076 8.5534067082537e-20 -0.026165039201895" pbc="T T T"
O        4.49819953       5.00000000       4.77304767       3.49593081       0.00000000     -37.75646903
H        4.49819953       5.00000000       5.47304767      -0.61822898      -0.00000000      37.48184036
H        5.50180047       5.00000000       4.52695233      -2.87770183      -0.00000000       0.27462867
3
Lattice="10.0 0.0 0.0 0.0 10.0 0.0 0.0 0.0 10.0" Properties=species:S:1:pos:R:3:forces:R:3 energy=-153.58199898928 free_energy=-153.58199898928 stress="-0.024182032864659 -9.494581355912e-20 0.0072964991796524 -9.494581355912e-20 -0.00022014392946829 1.149118798845e-19 0.0072964991796524 1.149118798845e-19 -0.0011876555877079" pbc="T T T"
O        4.66355841       5.00000000       4.60758419     -35.42840394      -0.00000000      11.81333774
H        4.66355841       5.00000000       5.58536196      -0.39305702      -0.00000000      -0.96365555
H        5.33644159       5.00000000       4.41463804      35.82146096       0.00000000     -10.84968219
3
Lattice="10.0 0.0 0.0 0.0 10.0 0.0 0.0 0.0 10.0" Properties=species:S:1:pos:R:3:forces:R:3 energy=-154.91118685082 free_energy=-154.91118685082 stress="0.0041847287095232 -8.0485150191658e-20 -0.0010585454518421 -8.0485150191658e-20 -0.00021100766398914 -2.4919065405649e-19 -0.0010585454518421 -2.4919065405649e-19 -0.016825274802206" pbc="T T T"
O        4.47664641       5.00000000       4.77229145       4.31337244      -0.00000000     -23.68128899
H        4.47664641       5.00000000       5.52784700      -0.22549834       0.00000000      22.67135497
H        5.52335359       5.00000000       4.47215300      -4.08787409       0.00000000       1.00993401
3
Lattice="10.0 0.0 0.0 0.0 10.0 0.0 0.0 0.0 10.0" Properties=species:S:1:pos:R:3:forces:R:3 energy=-156.07931715798 free_energy=-156.07931715798 stress="-0.001934226953384 -1.2760223656599e-19 0.00043803673130136 -1.2760223656599e-19 -0.00019572197321489 4.2702584139426e-20 0.00043803673130136 4.2702584139426e-20 0.0066115282580899" pbc="T T T"
O        4.55391409       5.00000000       4.51675111      -2.12384347      -0.00000000       6.10837111
H        4.55391409       5.00000000       5.71675111       0.03923099      -0.00000000      -5.61324432
H        5.44608591       5.00000000       4.28324889       2.08461249       0.00000000      -0.49512679
3
Lattice="10.0 0.0 0.0 0.0 10.0 0.0 0.0 0.0 10.0" Properties=species:S:1:pos:R:3:forces:R:3 energy=-154.65098821142 free_energy=-154.65098821142 stress="-0.015944669555401 -3.6338121483015e-20 0.0045534012537475 -3.6338121483015e-20 -0.0002091449618088 -7.8511014971123e-20 0.0045534012537475 -7.8511014971123e-20 0.0045232375886114" pbc="T T T"
O        4.63605989       5.00000000       4.52908743     -21.69704851      -0.00000000      11.34752999
H        4.63605989       5.00000000       5.67353188      -0.11684624      -0.00000000      -5.08445523
H        5.36394011       5.00000000       4.32646812      21.81389476       0.00000000      -6.26307476
3
Lattice="10.0 0.0 0.0 0.0 10.0 0.0 0.0 0.0 10.0" Properties=species:S:1:pos:R:3:forces:R:3 energy=-156.84984534078 free_energy=-156.84984534078 stress="0.00067336436032166 1.5347457753539e-19 4.3283497910352e-05 1.5347457753539e-19 -0.00019706578685844 -3.0791738143239e-20 4.3283497910352e-05 -3.0791738143239e-20 0.002793688378182" pbc="T T T"
O        4.52179451       5.00000000       4.58497905       0.98505154       0.00000000       2.77889200
H        4.52179451       5.00000000       5.61831238      -0.19737654      -0.00000000      -2.73064810
H        5.47820549       5.00000000       4.38168762      -0.78767500      -0.00000000      -0.04824390
3
Lattice="10.0 0.0 0.0 0.0 10.0 0.0 0.0 0.0 10.0" Properties=species:S:1:pos:R:3:forces:R:3 energy=-155.31644156222 free_energy=-155.31644156222 stress="-0.01006968677091 -6.5462417068653e-20 0.0024004044455849 -6.5462417068653e-20 -0.00020202629635478 -7.6767304115897e-20 0.0024004044455849 -7.6767304115897e-20 0.0061717670987433" pbc="T T T"
O        4.60397280       5.00000000       4.48739433     -12.47117509      -0.00000000       8.64910524
H        4.60397280       5.00000000       5.68739433      -0.16047074       0.00000000      -5.61165922
H        5.39602720       5.00000000       4.31260567      12.63164583       0.00000000      -3.03744601
3
Lattice="10.0 0.0 0.0 0.0 10.0 0.0 0.0 0.0 10.0" Properties=species:S:1:pos:R:3:forces:R:3 energy=-156.95934583063 free_energy=-156.95934583063 stress="0.00070782110374668 1.7381926742873e-19 -0.00011132605231526 1.7381926742873e-19 -0.00020083039485524 -4.2213182742972e-20 -0.00011132605231526 -4.2213182742972e-20 0.00083606083814438" pbc="T T T"
O        4.52704145       5.00000000       4.63489542       0.93159673       0.00000000       0.71878838
H        4.52704145       5.00000000       5.61267319      -0.09856872       0.00000000      -0.83349775
H        5.47295855       5.00000000       4.38732681      -0.83302801      -0.00000000       0.11470938
3
Lattice="10.0 0.0 0.0 0.0 10.0 0.0 0.0 0.0 10.0" Properties=species:S:1:pos:R:3:forces:R:3 energy=-154.64623711757 free_energy=-154.64623711757 stress="0.0054011396611487 7.0854702288869e-20 -0.0011843460118854 7.0854702288869e-20 -0.00020847037611853 -1.5342050366385e-19 -0.0011843460118854 -1.5342050366385e-19 -0.016870331476955" pbc="T T T"
O        4.44531631       5.00000000       4.76280770       5.22925426      -0.00000000     -23.79197806
H        4.44531631       5.00000000       5.51836326      -0.27778831       0.00000000      22.72581884
H        5.55468369       5.00000000       4.48163674      -4.95146595      -0.00000000       1.06615921
3
Lattice="10.0 0.0 0.0 0.0 10.0 0.0 0.0 0.0 10.0" Properties=species:S:1:pos:R:3:forces:R:3 energy=-156.14586209699 free_energy=-156.14586209699 stress="0.0052516778014061 1.0479782565238e-19 -0.0015546361749492 1.0479782565238e-19 -0.00020139524605826 5.5763048358878e-20 -0.0015546361749492 5.5763048358878e-20 -0.0051146751687053" pbc="T T T"
O        4.44994470       5.00000000       4.72439249       4.82901529       0.00000000      -7.83002554
H        4.44994470       5.00000000       5.59105915       0.02446535      -0.00000000       6.41830812
H        5.55005530       5.00000000       4.40894085      -4.85348064      -0.00000000       1.41171742
3
Lattice="10.0 0.0 0.0 0.0 10.0 0.0 0.0 0.0 10.0" Properties=species:S:1:pos:R:3:forces:R:3 energy=-156.37447084629 free_energy=-156.37447084629 stress="0.0052153405972938 6.7739613738737e-20 -0.0016039507181533 6.7739613738737e-20 -0.00019800535417214 1.1976980833842e-19 -0.0016039507181533 1.1976980833842e-19 -0.0014763322156533" pbc="T T T"
O        4.44994470       5.00000000       4.69661471       4.73044563       0.00000000      -3.55897725
H        4.44994470       5.00000000       5.61883693       0.08820464      -0.00000000       2.10249879
H        5.55005530       5.00000000       4.38116307      -4.81865027      -0.00000000       1.45647846
3
Lattice="10.0 0.0 0.0 0.0 10.0 0.0 0.0 0.0 10.0" Properties=species:S:1:pos:R:3:forces:R:3 energy=-156.40846090523 free_energy=-156.40846090523 stress="0.0053155539584061 1.7523898786082e-19 -0.0012589807355754 1.7523898786082e-19 -0.00019352040774726 -2.1072703251884e-20 -0.0012589807355754 -2.1072703251884e-20 0.0010236689707632" pbc="T T T"
O        4.44320210       5.00000000       4.64307464       4.87138925       0.00000000      -0.38705538
H        4.44320210       5.00000000       5.62085241      -0.02342098      -0.00000000      -0.74172159
H        5.55679790       5.00000000       4.37914759      -4.84796827      -0.00000000       1.12877697
3
Lattice="10.0 0.0 0.0 0.0 10.0 0.0 0.0 0.0 10.0" Properties=species:S:1:pos:R:3:forces:R:3 energy=-156.82472345476 free_energy=-156.82472345476 stress="-0.0018513893667082 -1.8511922469271e-19 0.00057481832988343 -1.8511922469271e-19 -0.00020107504651643 -1.5983303854258e-20 0.00057481832988343 -1.5983303854258e-20 0.0027267471525987" pbc="T T T"
O        4.55302188       5.00000000       4.59662066      -1.86798782      -0.00000000       3.44150268
H        4.55302188       5.00000000       5.62995400      -0.12106454      -0.00000000      -2.79427089
H        5.44697812       5.00000000       4.37004600       1.98905235       0.00000000      -0.64723180
3
Lattice="10.0 0.0 0.0 0.0 10.0 0.0 0.0 0.0 10.0" Properties=species:S:1:pos:R:3:forces:R:3 energy=-156.85129447637 free_energy=-156.85129447637 stress="0.0026508740307127 -3.247163450983e-20 -0.00042844191223133 -3.247163450983e-20 -0.00019724611138987 -3.1553103677849e-20 -0.00042844191223133 -3.1553103677849e-20 0.00083276931435242" pbc="T T T"
O        4.49547220       5.00000000       4.62244909       2.89204154       0.00000000       0.34496775
H        4.49547220       5.00000000       5.60022687      -0.18043589      -0.00000000      -0.76743404
H        5.50452780       5.00000000       4.39977313      -2.71160565      -0.00000000       0.42246629
3
Lattice="10.0 0.0 0.0 0.0 10.0 0.0 0.0 0.0 10.0" Properties=species:S:1:pos:R:3:forces:R:3 energy=-153.52946516611 free_energy=-153.52946516611 stress="-0.0017095199315013 2.1043397629195e-19 0.0010186346734914 2.1043397629195e-19 -0.00022303428153629 5.513594354185e-20 0.0010186346734914 5.513594354185e-20 -0.026488021183716" pbc="T T T"
O        4.55050683       5.00000000       4.75285594      -0.89093812       0.00000000     -36.36529060
H        4.55050683       5.00000000       5.45285594      -0.92385083      -0.00000000      37.50234398
H        5.44949317       5.00000000       4.54714406       1.81478895      -0.00000000      -1.13705338
3
Lattice="10.0 0.0 0.0 0.0 10.0 0.0 0.0 0.0 10.0" Properties=species:S:1:pos:R:3:forces:R:3 energy=-156.56152443733 free_energy=-156.56152443733 stress="0.0025523518226186 -1.1091117027778e-19 -0.0007064017157847 -1.1091117027778e-19 -0.00019328928019055 -1.761621081271e-19 -0.0007064017157847 -1.761621081271e-19 0.0046049742392875" pbc="T T T"
O        4.49916910       5.00000000       4.58249196       2.59877527      -0.00000000       3.36408994
H        4.49916910       5.00000000       5.67138085       0.03314567       0.00000000      -4.06725831
H        5.50083090       5.00000000       4.32861915      -2.63192094       0.00000000       0.70316837
3
Lattice="10.0 0.0 0.0 0.0 10.0 0.0 0.0 0.0 10.0" Properties=species:S:1:pos:R:3:forces:R:3 energy=-156.56054400595 free_energy=-156.56054400595 stress="0.0025296988084721 3.5415544130779e-20 -0.00079783389164605 3.5415544130779e-20 -0.00019379664080139 -1.4932559625155e-19 -0.00079783389164605 -1.4932559625155e-19 0.0046579765260183" pbc="T T T"
O        4.50119858       5.00000000       4.59024628       2.53779888      -0.00000000       3.28202395
H        4.50119858       5.00000000       5.67913517       0.08228495       0.00000000      -4.07975586
H        5.49880142       5.00000000       4.32086483      -2.62008384       0.00000000       0.79773190
3
Lattice="10.0 0.0 0.0 0.0 10.0 0.0 0.0 0.0 10.0" Properties=species:S:1:pos:R:3:forces:R:3 energy=-156.11700423693 free_energy=-156.11700423693 stress="0.0051738322242965 1.1836469979467e-19 -0.0015935748517581 1.1836469979467e-19 -0.00018965527753539 -1.2906747629082e-19 -0.0015935748517581 -1.2906747629082e-19 0.0048382144330476" pbc="T T T"
O        4.44756402       5.00000000       4.60472916       4.59863877      -0.00000000       2.60303622
H        4.44756402       5.00000000       5.69361805       0.15751972       0.00000000      -4.04359353
H        5.55243598       5.00000000       4.30638195      -4.75615849      -0.00000000       1.44055731
3
Lattice="10.0 0.0 0.0 0.0 10.0 0.0 0.0 0.0 10.0" Properties=species:S:1:pos:R:3:forces:R:3 energy=-154.89445088459 free_energy=-154.89445088459 stress="0.0042805409366001 -1.1260003716033e-20 -0.00059484365382524 -1.1260003716033e-20 -0.00020975357554825 -5.6987436859726e-20 -0.00059484365382524 -5.6987436859726e-20 -0.01706129263984" pbc="T T T"
O        4.46834705       5.00000000       4.73954612       4.60597737      -0.00000000     -23.30645921
H        4.46834705       5.00000000       5.49510167      -0.49222756       0.00000000      22.74863548
H        5.53165295       5.00000000       4.50489833      -4.11374981       0.00000000       0.55782373
3
Lattice="10.0 0.0 0.0 0.0 10.0 0.0 0.0 0.0 10.0" Properties=species:S:1:pos:R:3:forces:R:3 energy=-152.80479656244 free_energy=-152.80479656244 stress="-0.0096655211033924 -2.1474630794999e-19 0.0032448230154558 -2.1474630794999e-19 -0.00023194481727574 1.1512843439583e-19 0.0032448230154558 1.1512843439583e-19 -0.02710545010035" pbc="T T T"
O        4.60765938       5.00000000       4.75268471     -11.17304810      -0.00000000     -33.35878939
H        4.60765938       5.00000000       5.45268471      -1.05071827      -0.00000000      37.49941194
H        5.39234062       5.00000000       4.54731529      12.22376637       0.00000000      -4.14062255
3
Lattice="10.0 0.0 0.0 0.0 10.0 0.0 0.0 0.0 10.0" Properties=species:S:1:pos:R:3:forces:R:3 energy=-156.9018472037 free_energy=-156.9018472037 stress="-0.0017772492271715 -6.4683560526282e-20 0.00068573732272539 -6.4683560526282e-20 -0.00020666325084494 4.2213625248286e-20 0.00068573732272539 4.2213625248286e-20 -0.0020710363652904" pbc="T T T"
O        4.55302188       5.00000000       4.65217622      -1.62953493       0.00000000      -1.26753100
H        4.55302188       5.00000000       5.57439844      -0.27606983      -0.00000000       2.03882998
H        5.44697812       5.00000000       4.42560156       1.90560476       0.00000000      -0.77129898
3
Lattice="10.0 0.0 0.0 0.0 10.0 0.0 0.0 0.0 10.0" Properties=species:S:1:pos:R:3:forces:R:3 energy=-152.70226312854 free_energy=-152.70226312854 stress="0.0063442826047505 -4.7275358534627e-20 -0.0014144682626926 -4.7275358534627e-20 -0.00021109932421261 -4.1802587018643e-20 -0.0014144682626926 -4.1802587018643e-20 -0.025884895189088" pbc="T T T"
O        4.41838992       5.00000000       4.79741002       5.84638723       0.00000000     -38.71155114
H        4.41838992       5.00000000       5.49741002      -0.31321382      -0.00000000      37.49684738
H        5.58161008       5.00000000       4.50258998      -5.53317341       0.00000000       1.21470375
3
Lattice="10.0 0.0 0.0 0.0 10.0 0.0 0.0 0.0 10.0" Properties=species:S:1:pos:R:3:forces:R:3 energy=-156.82456626198 free_energy=-156.82456626198 stress="0.0026575900910847 4.2499472931307e-20 -0.00057063382995726 4.2499472931307e-20 -0.00020105094924784 9.6658445048533e-20 -0.00057063382995726 9.6658445048533e-20 -0.0017875452484581" pbc="T T T"
O        4.49916910       5.00000000       4.66582530       2.87665881       0.00000000      -2.65684006
H        4.49916910       5.00000000       5.58804752      -0.13715804      -0.00000000       2.08920194
H        5.50083090       5.00000000       4.41195248      -2.73950077      -0.00000000       0.56763812
3
Lattice="10.0 0.0 0.0 0.0 10.0 0.0 0.0 0.0 10.0" Properties=species:S:1:pos:R:3:forces:R:3 energy=-155.8228639297 free_energy=-155.8228639297 stress="0.0061085160856934 -5.7649427438973e-20 -0.0018767464736907 -5.7649427438973e-20 -0.00018797021872978 -1.4292081275121e-19 -0.0018767464736907 -1.4292081275121e-19 0.0049015342050008" pbc="T T T"
O        4.42074674       5.00000000       4.61197060       5.15468929      -0.00000000       2.41331494
H        4.42074674       5.00000000       5.70085948       0.18623808       0.00000000      -4.03157943
H        5.57925326       5.00000000       4.29914052      -5.34092737      -0.00000000       1.61826449
3
Lattice="10.0 0.0 0.0 0.0 10.0 0.0 0.0 0.0 10.0" Properties=species:S:1:pos:R:3:forces:R:3 energy=-152.70654298012 free_energy=-152.70654298012 stress="0.0062763938124363 -1.4764384430838e-19 -0.001624540813034 -1.4764384430838e-19 -0.00021166872720338 7.2117979083411e-20 -0.001624540813034 7.2117979083411e-20 -0.025775792019247" pbc="T T T"
O        4.42197747       5.00000000       4.81090357       5.72394326       0.00000000     -38.87474455
H        4.42197747       5.00000000       5.51090357      -0.21485794      -0.00000000      37.47067281
H        5.57802253       5.00000000       4.48909643      -5.50908532       0.00000000       1.40407174
3
Lattice="10.0 0.0 0.0 0.0 10.0 0.0 0.0 0.0 10.0" Properties=species:S:1:pos:R:3:forces:R:3 energy=-153.56391886321 free_energy=-153.56391886321 stress="0.00087176333591862 1.652342473285e-19 0.00027314950663327 1.652342473285e-19 -0.00021962456754621 5.2576635544263e-20 0.00027314950663327 5.2576635544263e-20 -0.026299594225635" pbc="T T T"
O        4.52517805       5.00000000       4.76643221       1.73592807       0.00000000     -37.18730143
H        4.52517805       5.00000000       5.46643221      -0.72815593      -0.00000000      37.47784509
H        5.47482195       5.00000000       4.53356779      -1.00777215      -0.00000000      -0.29054366
3
Lattice="10.0 0.0 0.0 0.0 10.0 0.0 0.0 0.0 10.0" Properties=species:S:1:pos:R:3:forces:R:3 energy=-156.40023907383 free_energy=-156.40023907383 stress="-0.0052939778689126 -9.5363151579841e-21 0.0014388904701156 -9.5363151579841e-21 -0.00020216583203853 -1.0825682010609e-19 0.0014388904701156 -1.0825682010609e-19 0.00411766290328" pbc="T T T"
O        4.57913509       5.00000000       4.55875683      -6.06407729      -0.00000000       5.84104509
H        4.57913509       5.00000000       5.64764572      -0.14491078       0.00000000      -4.12604729
H        5.42086491       5.00000000       4.35235428       6.20898808      -0.00000000      -1.71499780
3
Lattice="10.0 0.0 0.0 0.0 10.0 0.0 0.0 0.0 10.0" Properties=species:S:1:pos:R:3:forces:R:3 energy=-155.84846136186 free_energy=-155.84846136186 stress="-0.0053051325864437 1.7847031298205e-19 0.0013768177360014 1.7847031298205e-19 -0.00019920104909566 -3.3015530530559e-20 0.0013768177360014 -3.3015530530559e-20 0.006378604578736" pbc="T T T"
O        4.58078674       5.00000000       4.50971791      -6.23964148      -0.00000000       7.27705735
H        4.58078674       5.00000000       5.70971791      -0.00615938      -0.00000000      -5.62927304
H        5.41921326       5.00000000       4.29028209       6.24580086      -0.00000000      -1.64778431
3
Lattice="10.0 0.0 0.0 0.0 10.0 0.0 0.0 0.0 10.0" Properties=species:S:1:pos:R:3:forces:R:3 energy=-156.10961916375 free_energy=-156.10961916375 stress="0.00056707908135772 2.0941600776869e-19 -0.00036116673879103 2.0941600776869e-19 -0.00019348957455845 -1.1062904344111e-19 -0.00036116673879103 -1.1062904344111e-19 0.0068392064062009" pbc="T T T"
O        4.53004984       5.00000000       4.53475604       0.54485373       0.00000000       5.23103315
H        4.53004984       5.00000000       5.73475604       0.14407022      -0.00000000      -5.61248431
H        5.46995016       5.00000000       4.26524396      -0.68892395      -0.00000000       0.38145116
3
Lattice="10.0 0.0 0.0 0.0 10.0 0.0 0.0 0.0 10.0" Properties=species:S:1:pos:R:3:forces:R:3 energy=-153.00246367587 free_energy=-153.00246367587 stress="-0.024663529061413 -1.2625094379287e-19 0.0065061671842148 -1.2625094379287e-19 -0.00021278463152214 -1.1465873466979e-19 0.0065061671842148 -1.1465873466979e-19 0.0041157783675303" pbc="T T T"
O        4.66072745       5.00000000       4.51376696     -36.00173722      -0.00000000      14.66796301
H        4.66072745       5.00000000       5.65821140      -0.23866790       0.00000000      -5.07243378
H        5.33927255       5.00000000       4.34178860      36.24040512       0.00000000      -9.59552923
3
Lattice="10.0 0.0 0.0 0.0 10.0 0.0 0.0 0.0 10.0" Properties=species:S:1:pos:R:3:forces:R:3 energy=-156.66789687846 free_energy=-156.66789687846 stress="-0.0017772908954354 1.3766807342695e-19 0.00079978175512718 1.3766807342695e-19 -0.00020983234571964 4.0330267452034e-20 0.00079978175512718 4.0330267452034e-20 -0.0057498092955959" pbc="T T T"
O        4.55050683       5.00000000       4.66952261      -1.42079433       0.00000000      -5.50160512
H        4.55050683       5.00000000       5.53618928      -0.47317762      -0.00000000       6.39541924
H        5.44949317       5.00000000       4.46381072       1.89397195      -0.00000000      -0.89381412
3
Lattice="10.0 0.0 0.0 0.0 10.0 0.0 0.0 0.0 10.0" Properties=species:S:1:pos:R:3:forces:R:3 energy=-154.45766620251 free_energy=-154.45766620251 stress="-0.01579833569409 -1.1867613452908e-19 0.0049673890079176 -1.1867613452908e-19 -0.00022702139391789 -1.6975536535005e-19 0.0049673890079176 -1.6975536535005e-19 -0.011810870456722" pbc="T T T"
O        4.63605989       5.00000000       4.69575410     -20.87307293      -0.00000000      -5.99183162
H        4.63605989       5.00000000       5.50686521      -0.72786787       0.00000000      12.82213175
H        5.36394011       5.00000000       4.49313479      21.60094080       0.00000000      -6.83030013
3
Lattice="10.0 0.0 0.0 0.0 10.0 0.0 0.0 0.0 10.0" Properties=species:S:1:pos:R:3:forces:R:3 energy=-156.66154676176 free_energy=-156.66154676176 stress="0.0041320887831773 3.4308569225495e-20 -0.00093251587878131 3.4308569225495e-20 -0.0001954202912242 6.2659895745348e-20 -0.00093251587878131 6.2659895745348e-20 0.00096143351457479" pbc="T T T"
O        4.47023113       5.00000000       4.63666864       4.05084991       0.00000000      -0.11736625
H        4.47023113       5.00000000       5.61444642      -0.07051047      -0.00000000      -0.76092550
H        5.52976887       5.00000000       4.38555358      -3.98033943      -0.00000000       0.87829175
3
Lattice="10.0 0.0 0.0 0.0 10.0 0.0 0.0 0.0 10.0" Properties=species:S:1:pos:R:3:forces:R:3 energy=-156.81709228118 free_energy=-156.81709228118 stress="-0.0018997303237968 -1.8139221818944e-19 0.00065091125250544 -1.8139221818944e-19 -0.00020016093270173 -2.8399177447238e-20 0.00065091125250544 -2.8399177447238e-20 0.0026813945910206" pbc="T T T"
O        4.54896527       5.00000000       4.57920372      -1.77029296      -0.00000000       3.47879883
H        4.54896527       5.00000000       5.61253706      -0.25433867       0.00000000      -2.75302137
H        5.45103473       5.00000000       4.38746294       2.02463163       0.00000000      -0.72577745
3
Lattice="10.0 0.0 0.0 0.0 10.0 0.0 0.0 0.0 10.0" Properties=species:S:1:pos:R:3:forces:R:3 energy=-153.45216491712 free_energy=-153.45216491712 stress="0.0027982458258856 -3.4750186769215e-20 -0.00022936182962953 -3.4750186769215e-20 -0.00021667329250524 9.4102585251775e-20 -0.00022936182962953 9.4102585251775e-20 -0.02618617447782" pbc="T T T"
O        4.49726015       5.00000000       4.76915153       3.52942583      -0.00000000     -37.71759243
H        4.49726015       5.00000000       5.46915153      -0.65416565      -0.00000000      37.49145581
H        5.50273985       5.00000000       4.53084847      -2.87526018      -0.00000000       0.22613661
3
Lattice="10.0 0.0 0.0 0.0 10.0 0.0 0.0 0.0 10.0" Properties=species:S:1:pos:R:3:forces:R:3 energy=-156.18271289417 free_energy=-156.18271289417 stress="-0.0097607590839819 -1.8840500945332e-19 0.0028405543188139 -1.8840500945332e-19 -0.00021121147865983 6.6113472343486e-20 0.0028405543188139 6.6113472343486e-20 0.00011527581254434" pbc="T T T"
O        4.60765938       5.00000000       4.61379582     -12.04475270      -0.00000000       4.53312367
H        4.60765938       5.00000000       5.59157360      -0.31008505      -0.00000000      -0.90677200
H        5.39234062       5.00000000       4.40842640      12.35483774       0.00000000      -3.62635166
3
Lattice="10.0 0.0 0.0 0.0 10.0 0.0 0.0 0.0 10.0" Properties=species:S:1:pos:R:3:forces:R:3 energy=-155.09339790937 free_energy=-155.09339790937 stress="0.0027775341033168 1.4004948491668e-20 -0.00024448907605881 1.4004948491668e-20 -0.00021221145316249 -7.6496334275007e-20 -0.00024448907605881 -7.6496334275007e-20 -0.017120714984852" pbc="T T T"
O        4.49635102       5.00000000       4.73747045       3.39488086      -0.00000000     -22.96613609
H        4.49635102       5.00000000       5.49302600      -0.54692579       0.00000000      22.72545368
H        5.50364898       5.00000000       4.50697400      -2.84795507      -0.00000000       0.24068242
3
Lattice="10.0 0.0 0.0 0.0 10.0 0.0 0.0 0.0 10.0" Properties=species:S:1:pos:R:3:forces:R:3 energy=-154.34107568794 free_energy=-154.34107568794 stress="0.0063991255643882 -3.6453070527171e-20 -0.0011791723443764 -3.6453070527171e-20 -0.00020616501118566 -1.2041669114143e-19 -0.0011791723443764 -1.2041669114143e-19 -0.0169467524666" pbc="T T T"
O        4.41409675       5.00000000       4.75151794       5.87412334       0.00000000     -23.77754843
H        4.41409675       5.00000000       5.50707350      -0.33704661       0.00000000      22.77278459
H        5.58590325       5.00000000       4.49292650      -5.53707672       0.00000000       1.00476384
3
Lattice="10.0 0.0 0.0 0.0 10.0 0.0 0.0 0.0 10.0" Properties=species:S:1:pos:R:3:forces:R:3 energy=-155.84752976814 free_energy=-155.84752976814 stress="0.0062880285731712 -9.5627115579761e-20 -0.0015047051955985 -9.5627115579761e-20 -0.00019867132183734 -2.9726996992922e-19 -0.0015047051955985 -2.9726996992922e-19 -0.0052435764205721" pbc="T T T"
O        4.41726397       5.00000000       4.70956074       5.53785694      -0.00000000      -7.76761001
H        4.41726397       5.00000000       5.57622740      -0.06977405       0.00000000       6.47811075
H        5.58273603       5.00000000       4.42377260      -5.46808289       0.00000000       1.28949926
3
Lattice="10.0 0.0 0.0 0.0 10.0 0.0 0.0 0.0 10.0" Properties=species:S:1:pos:R:3:forces:R:3 energy=-155.57973725528 free_energy=-155.57973725528 stress="0.0062773332174721 -3.2904717194993e-20 -0.0014051182812788 -3.2904717194993e-20 -0.00018409517572749 -1.7360190319711e-19 -0.0014051182812788 -1.7360190319711e-19 0.0059278500084934" pbc="T T T"
O        4.41311144       5.00000000       4.55252479       5.36836289      -0.00000000       3.72225530
H        4.41311144       5.00000000       5.69696924       0.04513046       0.00000000      -4.91733318
H        5.58688856       5.00000000       4.30303076      -5.41349335      -0.00000000       1.19507788
3
Lattice="10.0 0.0 0.0 0.0 10.0 0.0 0.0 0.0 10.0" Properties=species:S:1:pos:R:3:forces:R:3 energy=-155.19378832378 free_energy=-155.19378832378 stress="-0.015908999868081 -1.2417597432375e-19 0.0047123464476127 -1.2417597432375e-19 -0.0002187896417807 1.1722516443835e-19 0.0047123464476127 1.1722516443835e-19 -0.0031184999485783" pbc="T T T"
O        4.63528499       5.00000000       4.63737243     -21.24087546       0.00000000       4.50257154
H        4.63528499       5.00000000       5.55959465      -0.47181828      -0.00000000       1.96409564
H        5.36471501       5.00000000       4.44040535      21.71269374       0.00000000      -6.46666718
3
Lattice="10.0 0.0 0.0 0.0 10.0 0.0 0.0 0.0 10.0" Properties=species:S:1:pos:R:3:forces:R:3 energy=-156.92190986335 free_energy=-156.92190986335 stress="-0.0018563545476478 -1.4566710846796e-19 0.00069031501221478 -1.4566710846796e-19 -0.00020298070069639 5.4259485778279e-20 0.00069031501221478 5.4259485778279e-20 0.00062008875858914" pbc="T T T"
O        4.54972250       5.00000000       4.61047727      -1.67599932      -0.00000000       1.58520697
H        4.54972250       5.00000000       5.58825505      -0.30371378      -0.00000000      -0.81446049
H        5.45027750       5.00000000       4.41174495       1.97971309       0.00000000      -0.77074648
3
Lattice="10.0 0.0 0.0 0.0 10.0 0.0 0.0 0.0 10.0" Properties=species:S:1:pos:R:3:forces:R:3 energy=-155.94228681588 free_energy=-155.94228681588 stress="-0.0096095536429103 -8.2766100503074e-20 0.0030654619898051 -8.2766100503074e-20 -0.00021819101909145 -1.8773725703453e-19 0.0030654619898051 -1.8773725703453e-19 -0.0063370180077544" pbc="T T T"
O        4.60929959       5.00000000       4.67542556     -11.73770958      -0.00000000      -2.36788398
H        4.60929959       5.00000000       5.54209223      -0.47244722       0.00000000       6.29693984
H        5.39070041       5.00000000       4.45790777      12.21015679       0.00000000      -3.92905586
3
Lattice="10.0 0.0 0.0 0.0 10.0 0.0 0.0 0.0 10.0" Properties=species:S:1:pos:R:3:forces:R:3 energy=-156.39703533435 free_energy=-156.39703533435 stress="0.0042109009383217 -1.2719091913399e-21 -0.0007715740206519 -1.2719091913399e-21 -0.0002017492156891 -1.6785437540025e-19 -0.0007715740206519 -1.6785437540025e-19 -0.0054284857215356" pbc="T T T"
O        4.46927312       5.00000000       4.68811103       4.29752542       0.00000000      -7.18442003
H        4.46927312       5.00000000       5.55477770      -0.24664865       0.00000000       6.45924178
H        5.53072688       5.00000000       4.44522230      -4.05087677       0.00000000       0.72517825
3
Lattice="10.0 0.0 0.0 0.0 10.0 0.0 0.0 0.0 10.0" Properties=species:S:1:pos:R:3:forces:R:3 energy=-156.69581710203 free_energy=-156.69581710203 stress="0.0007798741971479 1.2549395771596e-19 0.00014117649973599 1.2549395771596e-19 -0.0002066633161721 8.8785898209955e-20 0.00014117649973599 8.8785898209955e-20 -0.0056105599144615" pbc="T T T"
O        4.52342893       5.00000000       4.67571875       1.29494886       0.00000000      -6.26479432
H        4.52342893       5.00000000       5.54238542      -0.39088821      -0.00000000       6.41591636
H        5.47657107       5.00000000       4.45761458      -0.90406064      -0.00000000      -0.15112204
3
Lattice="10.0 0.0 0.0 0.0 10.0 0.0 0.0 0.0 10.0" Properties=species:S:1:pos:R:3:forces:R:3 energy=-152.70311754069 free_energy=-152.70311754069 stress="-0.024680839888004 -6.9251702774725e-20 0.0064542242938907 -6.9251702774725e-20 -0.00021122660395326 6.0399806799258e-20 0.0064542242938907 6.0399806799258e-20 0.0051188254106703" pbc="T T T"
O        4.66072745       5.00000000       4.48598918     -36.08697868      -0.00000000      15.18064182
H        4.66072745       5.00000000       5.68598918      -0.18058243      -0.00000000      -5.66130624
H        5.33927255       5.00000000       4.31401082      36.26756111       0.00000000      -9.51933558
3
Lattice="10.0 0.0 0.0 0.0 10.0 0.0 0.0 0.0 10.0" Properties=species:S:1:pos:R:3:forces:R:3 energy=-156.63081165682 free_energy=-156.63081165682 stress="0.0041212510497127 -5.4770762695106e-21 -0.0010589221331604 -5.4770762695106e-21 -0.00019909407597138 5.9090736789111e-20 -0.0010589221331604 5.9090736789111e-20 -0.0016639604699387" pbc="T T T"
O        4.47329616       5.00000000       4.67673959       4.04379112      -0.00000000      -3.10837436
H        4.47329616       5.00000000       5.59896181      -0.04856181      -0.00000000       2.10480222
H        5.52670384       5.00000000       4.40103819      -3.99522931      -0.00000000       1.00357214
3
Lattice="10.0 0.0 0.0 0.0 10.0 0.0 0.0 0.0 10.0" Properties=species:S:1:pos:R:3:forces:R:3 energy=-156.58916567134 free_energy=-156.58916567134 stress="-0.0053297988458026 -4.0125041923383e-20 0.0014601692916601 -4.0125041923383e-20 -0.00020387519296673 -7.6872833778561e-20 0.0014601692916601 -7.6872833778561e-20 0.002524773940443" pbc="T T T"
O        4.57684765       5.00000000       4.57671358      -5.92867878      -0.00000000       4.51447524
H        4.57684765       5.00000000       5.61004691      -0.28912972       0.00000000      -2.78365605
H        5.42315235       5.00000000       4.38995309       6.21780850      -0.00000000      -1.73081919
3
Lattice="10.0 0.0 0.0 0.0 10.0 0.0 0.0 0.0 10.0" Properties=species:S:1:pos:R:3:forces:R:3 energy=-156.39859093415 free_energy=-156.39859093415 stress="0.0041990756408726 4.0863672912361e-20 -0.00083106124987912 4.0863672912361e-20 -0.00020193141437609 6.1961545440113e-20 -0.00083106124987912 6.1961545440113e-20 -0.0053985574006312" pbc="T T T"
O        4.47023113       5.00000000       4.69222420       4.26273288      -0.00000000      -7.23301999
H        4.47023113       5.00000000       5.55889086      -0.21559137      -0.00000000       6.45035042
H        5.52976887       5.00000000       4.44110914      -4.04714151       0.00000000       0.78266957
3
Lattice="10.0 0.0 0.0 0.0 10.0 0.0 0.0 0.0 10.0" Properties=species:S:1:pos:R:3:forces:R:3 energy=-155.6184577235 free_energy=-155.6184577235 stress="0.0053708718953612 4.0116843028591e-20 -0.0012418895001335 4.0116843028591e-20 -0.00020433105502919 -1.8030965143674e-19 -0.0012418895001335 -1.8030965143674e-19 -0.010183151855586" pbc="T T T"
O        4.44531631       5.00000000       4.73502993       5.09971879      -0.00000000     -14.06078291
H        4.44531631       5.00000000       5.54614104      -0.17772840       0.00000000      12.94283418
H        5.55468369       5.00000000       4.45385896      -4.92199039      -0.00000000       1.11794872
3
Lattice="10.0 0.0 0.0 0.0 10.0 0.0 0.0 0.0 10.0" Properties=species:S:1:pos:R:3:forces:R:3 energy=-156.45565929751 free_energy=-156.45565929751 stress="-0.005110369517638 1.4100648537962e-19 0.0016981203651011 1.4100648537962e-19 -0.00021391337011255 2.3307353298155e-20 0.0016981203651011 2.3307353298155e-20 -0.0059564689692348" pbc="T T T"
O        4.58078674       5.00000000       4.67638457      -5.57545625       0.00000000      -4.30297802
H        4.58078674       5.00000000       5.54305124      -0.43713994      -0.00000000       6.33364360
H        5.41921326       5.00000000       4.45694876       6.01259619      -0.00000000      -2.03066558
3
Lattice="10.0 0.0 0.0 0.0 10.0 0.0 0.0 0.0 10.0" Properties=species:S:1:pos:R:3:forces:R:3 energy=-153.26533663704 free_energy=-153.26533663704 stress="0.0042430748662218 5.2745503245506e-20 -0.00088398715176411 5.2745503245506e-20 -0.00021484216842426 7.4066393708338e-20 -0.00088398715176411 7.4066393708338e-20 -0.025978306998852" pbc="T T T"
O        4.47438130       5.00000000       4.79193217       4.54218420       0.00000000     -38.30072291
H        4.47438130       5.00000000       5.49193217      -0.41445454      -0.00000000      37.46117489
H        5.52561870       5.00000000       4.50806783      -4.12772966      -0.00000000       0.83954803
3
Lattice="10.0 0.0 0.0 0.0 10.0 0.0 0.0 0.0 10.0" Properties=species:S:1:pos:R:3:forces:R:3 energy=-156.70814820147 free_energy=-156.70814820147 stress="-0.0051308283519298 -5.0910329830671e-20 0.0015847810397435 -5.0910329830671e-20 -0.00020762825649928 -7.3712888888537e-21 0.0015847810397435 -7.3712888888537e-21 0.00042591471291985" pbc="T T T"
O        4.58253929       5.00000000       4.62731924      -5.88381023       0.00000000       2.80774084
H        4.58253929       5.00000000       5.60509702      -0.18017210      -0.00000000      -0.90412402
H        5.41746071       5.00000000       4.39490298       6.06398233       0.00000000      -1.90361681
3
Lattice="10.0 0.0 0.0 0.0 10.0 0.0 0.0 0.0 10.0" Properties=species:S:1:pos:R:3:forces:R:3 energy=-156.81905019258 free_energy=-156.81905019258 stress="-0.0018897320399066 -5.734044119172e-20 0.00063541955544859 -5.734044119172e-20 -0.00020032985371801 -3.5796495610591e-20 0.00063541955544859 -3.5796495610591e-20 0.0026903731300264" pbc="T T T"
O        4.54972250       5.00000000       4.58269949      -1.78968484      -0.00000000       3.47111917
H        4.54972250       5.00000000       5.61603282      -0.22726565       0.00000000      -2.76132868
H        5.45027750       5.00000000       4.38396718       2.01695048       0.00000000      -0.70979049
3
Lattice="10.0 0.0 0.0 0.0 10.0 0.0 0.0 0.0 10.0" Properties=species:S:1:pos:R:3:forces:R:3 energy=-154.44292095367 free_energy=-154.44292095367 stress="-0.016016689000333 -1.4344465057096e-19 0.0047096401468538 -1.4344465057096e-19 -0.00022698965196623 -1.5583729064736e-19 0.0047096401468538 -1.5583729064736e-19 -0.011657008169708" pbc="T T T"
O        4.63380106       5.00000000       4.68725816     -20.94190739      -0.00000000      -6.42606115
H        4.63380106       5.00000000       5.49836927      -0.82450246       0.00000000      12.86236953
H        5.36619894       5.00000000       4.50163073      21.76640985       0.00000000      -6.43630838
3
Lattice="10.0 0.0 0.0 0.0 10.0 0.0 0.0 0.0 10.0" Properties=species:S:1:pos:R:3:forces:R:3 energy=-156.70788412838 free_energy=-156.70788412838 stress="0.00078685514397698 1.5973978653167e-19 -6.5551654134429e-05 1.5973978653167e-19 -0.00020759164779975 -2.101363155433e-19 -6.5551654134429e-05 -2.101363155433e-19 -0.0054960277912624" pbc="T T T"
O        4.52901868       5.00000000       4.69777328       1.12648483      -0.00000000      -6.42190697
H        4.52901868       5.00000000       5.56443994      -0.20489105       0.00000000       6.35533299
H        5.47098132       5.00000000       4.43556006      -0.92159378      -0.00000000       0.06657398
3
Lattice="10.0 0.0 0.0 0.0 10.0 0.0 0.0 0.0 10.0" Properties=species:S:1:pos:R:3:forces:R:3 energy=-153.55209020481 free_energy=-153.55209020481 stress="-0.0016314017705191 1.6097613332173e-19 0.00093569357731494 1.6097613332173e-19 -0.00022321943276938 3.8200007157688e-20 0.00093569357731494 3.8200007157688e-20 -0.026464366950842" pbc="T T T"
O        4.55483315       5.00000000       4.77020785      -1.00565409       0.00000000     -36.39262280
H        4.55483315       5.00000000       5.47020785      -0.73980694      -0.00000000      37.44758551
H        5.44516685       5.00000000       4.52979215       1.74546103      -0.00000000      -1.05496271
3
Lattice="10.0 0.0 0.0 0.0 10.0 0.0 0.0 0.0 10.0" Properties=species:S:1:pos:R:3:forces:R:3 energy=-156.90689927384 free_energy=-156.90689927384 stress="-0.001745257992036 -1.529509169658e-19 0.00063866172611032 -1.529509169658e-19 -0.00020715894536338 1.489750452653e-19 0.00063866172611032 1.489750452653e-19 -0.0020417896597597" pbc="T T T"
O        4.55577898       5.00000000       4.66254626      -1.69252825      -0.00000000      -1.28590251
H        4.55577898       5.00000000       5.58476848      -0.18913302      -0.00000000       2.00901328
H        5.44422102       5.00000000       4.41523152       1.88166126       0.00000000      -0.72311078
3
Lattice="10.0 0.0 0.0 0.0 10.0 0.0 0.0 0.0 10.0" Properties=species:S:1:pos:R:3:forces:R:3 energy=-156.30884477178 free_energy=-156.30884477178 stress="0.0025250621845099 -5.3709598872208e-21 -0.000741190624991 -5.3709598872208e-21 -0.00019139431492258 -1.1624321388351e-19 -0.000741190624991 -1.1624321388351e-19 0.0058755301143497" pbc="T T T"
O        4.49916910       5.00000000       4.55471418       2.53623196      -0.00000000       4.23353176
H        4.49916910       5.00000000       5.69915863       0.06793510       0.00000000      -4.97142102
H        5.50083090       5.00000000       4.30084137      -2.60416706      -0.00000000       0.73788926
3
Lattice="10.0 0.0 0.0 0.0 10.0 0.0 0.0 0.0 10.0" Properties=species:S:1:pos:R:3:forces:R:3 energy=-152.69152057614 free_energy=-152.69152057614 stress="0.0064336705357691 6.1938848406228e-20 -0.001052092957426 6.1938848406228e-20 -0.00021027390800379 5.2878133348597e-20 -0.001052092957426 5.2878133348597e-20 -0.026046869312234" pbc="T T T"
O        4.41311144       5.00000000       4.77474701       6.04127645       0.00000000     -38.43235237
H        4.41311144       5.00000000       5.47474701      -0.48211293      -0.00000000      37.53748418
H        5.58688856       5.00000000       4.52525299      -5.55916352       0.00000000       0.89486820
3
Lattice="10.0 0.0 0.0 0.0 10.0 0.0 0.0 0.0 10.0" Properties=species:S:1:pos:R:3:forces:R:3 energy=-154.35100165334 free_energy=-154.35100165334 stress="-0.015967443004824 -1.5262923365984e-19 0.0045081504167838 -1.5262923365984e-19 -0.0002076527917504 -2.3554609875768e-20 0.0045081504167838 -2.3554609875768e-20 0.0055250564588051" pbc="T T T"
O        4.63605989       5.00000000       4.50130965     -21.77739326      -0.00000000      11.87349652
H        4.63605989       5.00000000       5.70130965      -0.06847470       0.00000000      -5.67233571
H        5.36394011       5.00000000       4.29869035      21.84586796       0.00000000      -6.20116081
3
Lattice="10.0 0.0 0.0 0.0 10.0 0.0 0.0 0.0 10.0" Properties=species:S:1:pos:R:3:forces:R:3 energy=-156.1482095851 free_energy=-156.1482095851 stress="-0.0098590988552971 -4.617035768999e-20 0.0027808247976611 -4.617035768999e-20 -0.00021404278567052 3.9173134192288e-20 0.0027808247976611 3.9173134192288e-20 -0.0025569074811681" pbc="T T T"
O        4.60537625       5.00000000       4.63241644     -11.90880673       0.00000000       1.50930284
H        4.60537625       5.00000000       5.55463866      -0.49814165      -0.00000000       2.02024263
H        5.39462375       5.00000000       4.44536134      12.40694837       0.00000000      -3.52954547
3
Lattice="10.0 0.0 0.0 0.0 10.0 0.0 0.0 0.0 10.0" Properties=species:S:1:pos:R:3:forces:R:3 energy=-154.34855212475 free_energy=-154.34855212475 stress="0.0062982547218853 -1.2555934142956e-19 -0.0015413852103725 -1.2555934142956e-19 -0.00020711325914987 -1.2991583033063e-19 -0.0015413852103725 -1.2991583033063e-19 -0.016769266861151" pbc="T T T"
O        4.41955087       5.00000000       4.77413932       5.67828327      -0.00000000     -24.05625286
H        4.41955087       5.00000000       5.52969488      -0.17560839       0.00000000      22.72984897
H        5.58044913       5.00000000       4.47030512      -5.50267489       0.00000000       1.32640389
3
Lattice="10.0 0.0 0.0 0.0 10.0 0.0 0.0 0.0 10.0" Properties=species:S:1:pos:R:3:forces:R:3 energy=-154.34463671802 free_energy=-154.34463671802 stress="0.0063623860393576 -1.4792579642582e-19 -0.0013258949205363 -1.4792579642582e-19 -0.00020652569048956 -9.1904780976753e-20 -0.0013258949205363 -9.1904780976753e-20 -0.01687890546978" pbc="T T T"
O        4.41617308       5.00000000       4.76059174       5.79723810      -0.00000000     -23.89008308
H        4.41617308       5.00000000       5.51614730      -0.27176364       0.00000000      22.75601522
H        5.58382692       5.00000000       4.48385270      -5.52547446       0.00000000       1.13406787
3
Lattice="10.0 0.0 0.0 0.0 10.0 0.0 0.0 0.0 10.0" Properties=species:S:1:pos:R:3:forces:R:3 energy=-152.70386721417 free_energy=-152.70386721417 stress="0.0063228101043448 -9.2035871791561e-20 -0.0014851222457244 -9.2035871791561e-20 -0.00021128297177355 6.5613061188182e-20 -0.0014851222457244 6.5613061188182e-20 -0.025849719817889" pbc="T T T"
O        4.41955087       5.00000000       4.80191710       5.80601393      -0.00000000     -38.76630523
H        4.41955087       5.00000000       5.50191710      -0.28017658      -0.00000000      37.48827319
H        5.58044913       5.00000000       4.49808290      -5.52583735       0.00000000       1.27803204
3
Lattice="10.0 0.0 0.0 0.0 10.0 0.0 0.0 0.0 10.0" Properties=species:S:1:pos:R:3:forces:R:3 energy=-154.64451681092 free_energy=-154.64451681092 stress="0.0054181030566714 6.5276124855509e-20 -0.0011183694250346 6.5276124855509e-20 -0.00020829399523789 -1.3416589960139e-19 -0.0011183694250346 -1.3416589960139e-19 -0.016903723032658" pbc="T T T"
O        4.44424249       5.00000000       4.75850083       5.26767766      -0.00000000     -23.73967409
H        4.44424249       5.00000000       5.51405638      -0.31061046       0.00000000      22.73496840
H        5.55575751       5.00000000       4.48594362      -4.95706720      -0.00000000       1.00470568
3
Lattice="10.0 0.0 0.0 0.0 10.0 0.0 0.0 0.0 10.0" Properties=species:S:1:pos:R:3:forces:R:3 energy=-156.752424913 free_energy=-156.752424913 stress="0.0025515736299011 2.6109354761414e-20 -0.00080479927435104 2.6109354761414e-20 -0.00019622262014053 -4.8674534871734e-20 -0.00080479927435104 -4.8674534871734e-20 0.0030833630439829" pbc="T T T"
O        4.50225838       5.00000000       4.62188918       2.58194466      -0.00000000       1.96010871
H        4.50225838       5.00000000       5.65522252       0.06633134      -0.00000000      -2.76655776
H        5.49774162       5.00000000       4.34477748      -2.64827600       0.00000000       0.80644905
3
Lattice="10.0 0.0 0.0 0.0 10.0 0.0 0.0 0.0 10.0" Properties=species:S:1:pos:R:3:forces:R:3 energy=-153.54796396795 free_energy=-153.54796396795 stress="-0.0016465095247147 -8.3300980540515e-20 0.00095204523114341 -8.3300980540515e-20 -0.00022316843641692 1.4843213232232e-19 0.00095204523114341 1.4843213232232e-19 -0.026469514098954" pbc="T T T"
O        4.55391409       5.00000000       4.76675111      -0.98273356      -0.00000000     -36.38759370
H        4.55391409       5.00000000       5.46675111      -0.77590543      -0.00000000      37.45870563
H        5.44608591       5.00000000       4.53324889       1.75863899       0.00000000      -1.07111193
3
Lattice="10.0 0.0 0.0 0.0 10.0 0.0 0.0 0.0 10.0" Properties=species:S:1:pos:R:3:forces:R:3 energy=-156.07886741732 free_energy=-156.07886741732 stress="-0.0019269903510419 -1.2186393917331e-20 0.00042577850220454 -1.2186393917331e-20 -0.00019597877698913 2.5344117561463e-20 0.00042577850220454 2.5344117561463e-20 0.0066194676871005" pbc="T T T"
O        4.55483315       5.00000000       4.52020785      -2.14132688       0.00000000       6.10103090
H        4.55483315       5.00000000       5.72020785       0.06055243      -0.00000000      -5.61865064
H        5.44516685       5.00000000       4.27979215       2.08077446      -0.00000000      -0.48238026
3
Lattice="10.0 0.0 0.0 0.0 10.0 0.0 0.0 0.0 10.0" Properties=species:S:1:pos:R:3:forces:R:3 energy=-156.37534663517 free_energy=-156.37534663517 stress="0.0052626480660284 4.990958682511e-20 -0.0014765077221541 4.990958682511e-20 -0.00019750065851693 6.7806602330415e-20 -0.0014765077221541 6.7806602330415e-20 -0.0015522217378168" pbc="T T T"
O        4.44756402       5.00000000       4.68806249       4.80809934       0.00000000      -3.45319269
H        4.44756402       5.00000000       5.61028471       0.03232888      -0.00000000       2.11841142
H        5.55243598       5.00000000       4.38971529      -4.84042822      -0.00000000       1.33478127
3
Lattice="10.0 0.0 0.0 0.0 10.0 0.0 0.0 0.0 10.0" Properties=species:S:1:pos:R:3:forces:R:3 energy=-155.82444446421 free_energy=-155.82444446421 stress="0.0039795740508499 -5.9159546989818e-20 -0.001242737028743 -5.9159546989818e-20 -0.00018770738999501 4.8877375106241e-20 -0.001242737028743 4.8877375106241e-20 0.0070173704204811" pbc="T T T"
O        4.47329616       5.00000000       4.53785070       3.70764572       0.00000000       4.39547022
H        4.47329616       5.00000000       5.73785070       0.14735722      -0.00000000      -5.57323901
H        5.52670384       5.00000000       4.26214930      -3.85500294       0.00000000       1.17776880
3
Lattice="10.0 0.0 0.0 0.0 10.0 0.0 0.0 0.0 10.0" Properties=species:S:1:pos:R:3:forces:R:3 energy=-155.32178031523 free_energy=-155.32178031523 stress="0.0062189927166522 -6.5395701418413e-20 -0.0017372182316335 -6.5395701418413e-20 -0.00020344539777042 -2.4837861122504e-19 -0.0017372182316335 -2.4837861122504e-19 -0.010004870354622" pbc="T T T"
O        4.42197747       5.00000000       4.75534801       5.48082027      -0.00000000     -14.43396459
H        4.42197747       5.00000000       5.56645912      -0.02545221       0.00000000      12.93259778
H        5.57802253       5.00000000       4.43354088      -5.45536807       0.00000000       1.50136680
3
Lattice="10.0 0.0 0.0 0.0 10.0 0.0 0.0 0.0 10.0" Properties=species:S:1:pos:R:3:forces:R:3 energy=-156.37473496621 free_energy=-156.37473496621 stress="-0.0018850487341591 1.0713019674316e-19 0.0004346211418416 1.0713019674316e-19 -0.00019804978865379 -1.7996828972256e-19 0.0004346211418416 -1.7996828972256e-19 0.0056293520075781" pbc="T T T"
O        4.55675155       5.00000000       4.55487723      -2.11551344       0.00000000       5.52721160
H        4.55675155       5.00000000       5.69932167       0.07236016       0.00000000      -5.03271911
H        5.44324845       5.00000000       4.30067833       2.04315328      -0.00000000      -0.49449249
3
Lattice="10.0 0.0 0.0 0.0 10.0 0.0 0.0 0.0 10.0" Properties=species:S:1:pos:R:3:forces:R:3 energy=-155.87566845826 free_energy=-155.87566845826 stress="0.0042077464151659 -5.2110692269772e-21 -0.00089114067259662 -5.2110692269772e-21 -0.00020617257852031 -2.1833414200033e-19 -0.00089114067259662 -2.1833414200033e-19 -0.010259894166842" pbc="T T T"
O        4.47224270       5.00000000       4.72820539       4.32007433      -0.00000000     -13.76691653
H        4.47224270       5.00000000       5.53931650      -0.24692556       0.00000000      12.92420262
H        5.52775730       5.00000000       4.46068350      -4.07314877      -0.00000000       0.84271392
3
Lattice="10.0 0.0 0.0 0.0 10.0 0.0 0.0 0.0 10.0" Properties=species:S:1:pos:R:3:forces:R:3 energy=-155.93545697495 free_energy=-155.93545697495 stress="-0.0097014794669161 -1.6945705292541e-19 0.0029833270750307 -1.6945705292541e-19 -0.00021802425336377 -1.5089063429998e-19 0.0029833270750307 -1.5089063429998e-19 -0.0062888175823762" pbc="T T T"
O        4.60765938       5.00000000       4.66935137     -11.74361942      -0.00000000      -2.51286487
H        4.60765938       5.00000000       5.53601804      -0.53280288       0.00000000       6.32083441
H        5.39234062       5.00000000       4.46398196      12.27642230       0.00000000      -3.80796954
3
Lattice="10.0 0.0 0.0 0.0 10.0 0.0 0.0 0.0 10.0" Properties=species:S:1:pos:R:3:forces:R:3 energy=-155.87051733924 free_energy=-155.87051733924 stress="-0.0099845556318314 -2.0604451297503e-19 0.0025461464724327 -2.0604451297503e-19 -0.00020572728235263 -1.6177563982259e-19 0.0025461464724327 -1.6177563982259e-19 0.0038812660770021" pbc="T T T"
O        4.60466263       5.00000000       4.54601922     -12.29237308      -0.00000000       7.35662816
H        4.60466263       5.00000000       5.63490810      -0.25348225       0.00000000      -4.12980964
H        5.39533737       5.00000000       4.36509190      12.54585532       0.00000000      -3.22681852
3
Lattice="10.0 0.0 0.0 0.0 10.0 0.0 0.0 0.0 10.0" Properties=species:S:1:pos:R:3:forces:R:3 energy=-155.57002372381 free_energy=-155.57002372381 stress="0.0051115325330838 3.615600752366e-20 -0.0017077309397494 3.615600752366e-20 -0.00018628198197206 -4.5895009443102e-20 -0.0017077309397494 -4.5895009443102e-20 0.0071692754513229" pbc="T T T"
O        4.44873778       5.00000000       4.55345433       4.49231427      -0.00000000       4.02550901
H        4.44873778       5.00000000       5.75345433       0.21603714      -0.00000000      -5.57260049
H        5.55126222       5.00000000       4.24654567      -4.70835141      -0.00000000       1.54709147
3
Lattice="10.0 0.0 0.0 0.0 10.0 0.0 0.0 0.0 10.0" Properties=species:S:1:pos:R:3:forces:R:3 energy=-156.06533554914 free_energy=-156.06533554914 stress="0.0027478847374024 -1.1808884409954e-20 -0.00030777943987011 -1.1808884409954e-20 -0.00020793999945304 -2.4340205538552e-19 -0.00030777943987011 -2.4340205538552e-19 -0.010432402950179" pbc="T T T"
O        4.49635102       5.00000000       4.70969267       3.23882462      -0.00000000     -13.23726502
H        4.49635102       5.00000000       5.52080378      -0.42203291       0.00000000      12.93378221
H        5.50364898       5.00000000       4.47919622      -2.81679171      -0.00000000       0.30348282
3
Lattice="10.0 0.0 0.0 0.0 10.0 0.0 0.0 0.0 10.0" Properties=species:S:1:pos:R:3:forces:R:3 energy=-155.17418093692 free_energy=-155.17418093692 stress="-0.016247148494202 -1.2519114127273e-19 0.0042693534808621 -1.2519114127273e-19 -0.00021844662808779 1.4269632971977e-19 0.0042693534808621 1.4269632971977e-19 -0.0028871373714434" pbc="T T T"
O        4.63174053       5.00000000       4.62315641     -21.34924641       0.00000000       3.78010625
H        4.63174053       5.00000000       5.54537863      -0.61444049      -0.00000000       2.02293490
H        5.36825947       5.00000000       4.45462137      21.96368690       0.00000000      -5.80304114
3
Lattice="10.0 0.0 0.0 0.0 10.0 0.0 0.0 0.0 10.0" Properties=species:S:1:pos:R:3:forces:R:3 energy=-154.91048587982 free_energy=-154.91048587982 stress="-0.015919022208675 -9.8693256237355e-20 0.0046045103985824 -9.8693256237355e-20 -0.00021092762752895 -1.5212845305006e-19 0.0046045103985824 -1.5212845305006e-19 0.0032609081896161" pbc="T T T"
O        4.63605989       5.00000000       4.55686521     -21.60135880      -0.00000000      10.53182581
H        4.63605989       5.00000000       5.64575410      -0.17632754       0.00000000      -4.19879134
H        5.36394011       5.00000000       4.35424590      21.77768633       0.00000000      -6.33303447
3
Lattice="10.0 0.0 0.0 0.0 10.0 0.0 0.0 0.0 10.0" Properties=species:S:1:pos:R:3:forces:R:3 energy=-152.70474901269 free_energy=-152.70474901269 stress="-0.024581149925415 -1.3202149868089e-19 0.0066084474892905 -1.3202149868089e-19 -0.00021141416375092 3.7228477918782e-20 0.0066084474892905 3.7228477918782e-20 0.0050357183806328" pbc="T T T"
O        4.66140467       5.00000000       4.48861831     -36.03129755      -0.00000000      15.43479066
H        4.66140467       5.00000000       5.68861831      -0.16131268      -0.00000000      -5.66869635
H        5.33859533       5.00000000       4.31138169      36.19261023       0.00000000      -9.76609431
3
Lattice="10.0 0.0 0.0 0.0 10.0 0.0 0.0 0.0 10.0" Properties=species:S:1:pos:R:3:forces:R:3 energy=-156.11065640335 free_energy=-156.11065640335 stress="0.0061262635629189 -8.206670448072e-21 -0.0018779623278273 -8.206670448072e-21 -0.00019317100643349 -5.3722075069247e-21 -0.0018779623278273 -5.3722075069247e-21 0.0012685176375275" pbc="T T T"
O        4.42197747       5.00000000       4.67201468       5.21963123      -0.00000000      -0.86349846
H        4.42197747       5.00000000       5.64979246       0.15040592      -0.00000000      -0.75941765
H        5.57802253       5.00000000       4.35020754      -5.37003716      -0.00000000       1.62291612
3
Lattice="10.0 0.0 0.0 0.0 10.0 0.0 0.0 0.0 10.0" Properties=species:S:1:pos:R:3:forces:R:3 energy=-155.86827903074 free_energy=-155.86827903074 stress="0.0052022058626697 1.5789405081671e-19 -0.0014956181895228 1.5789405081671e-19 -0.00018714207849376 -1.9431960088715e-19 -0.0014956181895228 -1.9431960088715e-19 0.0060433206971666" pbc="T T T"
O        4.44531631       5.00000000       4.56836326       4.62693883       0.00000000       3.59896285
H        4.44531631       5.00000000       5.71280770       0.13434882       0.00000000      -4.94525053
H        5.55468369       5.00000000       4.28719230      -4.76128764      -0.00000000       1.34628767
3
Lattice="10.0 0.0 0.0 0.0 10.0 0.0 0.0 0.0 10.0" Properties=species:S:1:pos:R:3:forces:R:3 energy=-156.18022080192 free_energy=-156.18022080192 stress="-0.0098037512303136 -3.8146304359667e-20 0.0027977666491175 -3.8146304359667e-20 -0.0002110772301356 7.3078519171283e-21 0.0027977666491175 7.3078519171283e-21 0.0001378474422115" pbc="T T T"
O        4.60687467       5.00000000       4.61074937     -12.04790803      -0.00000000       4.46131405
H        4.60687467       5.00000000       5.58852714      -0.33702920      -0.00000000      -0.89661724
H        5.39312533       5.00000000       4.41147286      12.38493723       0.00000000      -3.56469681
3
Lattice="10.0 0.0 0.0 0.0 10.0 0.0 0.0 0.0 10.0" Properties=species:S:1:pos:R:3:forces:R:3 energy=-156.68518741898 free_energy=-156.68518741898 stress="-0.001694543065919 5.6855351348502e-21 0.00068607759263983 5.6855351348502e-21 -0.00021075700918123 1.2889161905384e-19 0.00068607759263983 1.2889161905384e-19 -0.0056849552656104" pbc="T T T"
O        4.55675155       5.00000000       4.69376611      -1.57122864       0.00000000      -5.54246613
H        4.55675155       5.00000000       5.56043278      -0.25676045      -0.00000000       6.32063213
H        5.44324845       5.00000000       4.43956722       1.82798909      -0.00000000      -0.77816600
3
Lattice="10.0 0.0 0.0 0.0 10.0 0.0 0.0 0.0 10.0" Properties=species:S:1:pos:R:3:forces:R:3 energy=-152.82106819117 free_energy=-152.82106819117 stress="-0.009514906458505 -2.431741988647e-19 0.0033643604784922 -2.431741988647e-19 -0.00023189065510699 1.6261871896473e-19 0.0033643604784922 1.6261871896473e-19 -0.027190682479639" pbc="T T T"
O        4.61015498       5.00000000       4.76178626     -11.16788545      -0.00000000     -33.14038362
H        4.61015498       5.00000000       5.46178626      -0.94073314      -0.00000000      37.46079738
H        5.38984502       5.00000000       4.53821374      12.10861859       0.00000000      -4.32041376
3
Lattice="10.0 0.0 0.0 0.0 10.0 0.0 0.0 0.0 10.0" Properties=species:S:1:pos:R:3:forces:R:3 energy=-156.30958553457 free_energy=-156.30958553457 stress="0.0025648400684344 7.4706390339719e-21 -0.00055567457508166 7.4706390339719e-21 -0.00019041358573002 -1.5487937163214e-19 -0.00055567457508166 -1.5487937163214e-19 0.0057778762222945" pbc="T T T"
O        4.49547220       5.00000000       4.53911576       2.65049705      -0.00000000       4.40084952
H        4.49547220       5.00000000       5.68356020      -0.02641771       0.00000000      -4.94936222
H        5.50452780       5.00000000       4.31643980      -2.62407934      -0.00000000       0.54851270
3
Lattice="10.0 0.0 0.0 0.0 10.0 0.0 0.0 0.0 10.0" Properties=species:S:1:pos:R:3:forces:R:3 energy=-153.56777825237 free_energy=-153.56777825237 stress="0.00087660741008622 1.5419592546795e-19 0.00023863369363188 1.5419592546795e-19 -0.00021969600646192 1.4974788634971e-20 0.00023863369363188 1.4974788634971e-20 -0.026285073683065" pbc="T T T"
O        4.52609549       5.00000000       4.77011187       1.70656383       0.00000000     -37.21286782
H        4.52609549       5.00000000       5.47011187      -0.69191059      -0.00000000      37.46755621
H        5.47390451       5.00000000       4.52988813      -1.01465324      -0.00000000      -0.25468838
3
Lattice="10.0 0.0 0.0 0.0 10.0 0.0 0.0 0.0 10.0" Properties=species:S:1:pos:R:3:forces:R:3 energy=-154.64049280535 free_energy=-154.64049280535 stress="0.0054487710301543 1.4246804357957e-19 -0.00098474130104729 1.4246804357957e-19 -0.00020796041691343 -2.5010454911662e-19 -0.00098474130104729 -2.5010454911662e-19 -0.01696752087306" pbc="T T T"
O        4.44219522       5.00000000       4.74986273       5.34321078      -0.00000000     -23.63404905
H        4.44219522       5.00000000       5.50541829      -0.37701952       0.00000000      22.75288332
H        5.55780478       5.00000000       4.49458171      -4.96619126      -0.00000000       0.88116573
3
Lattice="10.0 0.0 0.0 0.0 10.0 0.0 0.0 0.0 10.0" Properties=species:S:1:pos:R:3:forces:R:3 energy=-156.01577897792 free_energy=-156.01577897792 stress="0.0062368443208664 -6.7927377229827e-20 -0.0015605995843489 -6.7927377229827e-20 -0.00018919844282517 -9.1640770749029e-20 -0.0015605995843489 -9.1640770749029e-20 0.0031419119983743" pbc="T T T"
O        4.41617308       5.00000000       4.62170286       5.35071679      -0.00000000       1.34473652
H        4.41617308       5.00000000       5.65503619       0.05874862      -0.00000000      -2.67947060
H        5.58382692       5.00000000       4.34496381      -5.40946541       0.00000000       1.33473408
3
Lattice="10.0 0.0 0.0 0.0 10.0 0.0 0.0 0.0 10.0" Properties=species:S:1:pos:R:3:forces:R:3 energy=-156.07821879293 free_energy=-156.07821879293 stress="-0.00191985075736 -1.7900490500706e-19 0.00041368334101975 -1.7900490500706e-19 -0.00019624189042911 7.3790417273453e-20 0.00041368334101975 7.3790417273453e-20 0.0066274050254797" pbc="T T T"
O        4.55577898       5.00000000       4.52365737      -2.15887840      -0.00000000       6.09377460
H        4.55577898       5.00000000       5.72365737       0.08171925      -0.00000000      -5.62398027
H        5.44422102       5.00000000       4.27634263       2.07715914       0.00000000      -0.46979434
3
Lattice="10.0 0.0 0.0 0.0 10.0 0.0 0.0 0.0 10.0" Properties=species:S:1:pos:R:3:forces:R:3 energy=-156.8221752927 free_energy=-156.8221752927 stress="0.0026726869696943 -6.3607576000763e-20 -0.00047429470761243 -6.3607576000763e-20 -0.00020066695618372 4.4544927357157e-20 -0.00047429470761243 4.4544927357157e-20 -0.0018396765872247" pbc="T T T"
O        4.49726015       5.00000000       4.65804042       2.94029074      -0.00000000      -2.57646276
H        4.49726015       5.00000000       5.58026264      -0.19617778      -0.00000000       2.10683478
H        5.50273985       5.00000000       4.41973736      -2.74411295      -0.00000000       0.46962798
3
Lattice="10.0 0.0 0.0 0.0 10.0 0.0 0.0 0.0 10.0" Properties=species:S:1:pos:R:3:forces:R:3 energy=-156.9337141295 free_energy=-156.9337141295 stress="-0.0017758162084311 1.2185669254409e-19 0.00056691654717638 1.2185669254409e-19 -0.00020440916517178 -2.6825843689358e-20 0.00056691654717638 -2.6825843689358e-20 0.00069616437514264" pbc="T T T"
O        4.55675155       5.00000000       4.63821056      -1.83875143       0.00000000       1.53082026
H        4.55675155       5.00000000       5.61598834      -0.08193537      -0.00000000      -0.88703837
H        5.44324845       5.00000000       4.38401166       1.92068680      -0.00000000      -0.64378189
3
Lattice="10.0 0.0 0.0 0.0 10.0 0.0 0.0 0.0 10.0" Properties=species:S:1:pos:R:3:forces:R:3 energy=-153.46268003032 free_energy=-153.46268003032 stress="-0.024522951158103 -6.4890249513985e-20 0.0067804560036017 -6.4890249513985e-20 -0.00021708103378967 -4.7694924972097e-20 0.0067804560036017 -4.7694924972097e-20 0.0011597158320682" pbc="T T T"
O        4.66140467       5.00000000       4.57195164     -35.73166544      -0.00000000      12.89864307
H        4.66140467       5.00000000       5.60528498      -0.36906890       0.00000000      -2.87958997
H        5.33859533       5.00000000       4.39471502      36.10073433       0.00000000     -10.01905310
3
Lattice="10.0 0.0 0.0 0.0 10.0 0.0 0.0 0.0 10.0" Properties=species:S:1:pos:R:3:forces:R:3 energy=-156.67402546878 free_energy=-156.67402546878 stress="-0.005194128212308 -5.3161844344443e-20 0.0016115764889148 -5.3161844344443e-20 -0.00021007930700124 8.0077133250484e-20 0.0016115764889148 8.0077133250484e-20 -0.0022898606860232" pbc="T T T"
O        4.57913509       5.00000000       4.64209016      -5.70491070       0.00000000      -0.10661338
H        4.57913509       5.00000000       5.56431238      -0.38455443      -0.00000000       2.02657837
H        5.42086491       5.00000000       4.43568762       6.08946513      -0.00000000      -1.91996499
3
Lattice="10.0 0.0 0.0 0.0 10.0 0.0 0.0 0.0 10.0" Properties=species:S:1:pos:R:3:forces:R:3 energy=-156.39328836189 free_energy=-156.39328836189 stress="0.0042316905753965 1.186205834484e-20 -0.00065112591435469 1.186205834484e-20 -0.0002014050347053 -2.2317203375303e-19 -0.00065112591435469 -2.2317203375303e-19 -0.005485874764158" pbc="T T T"
O        4.46745297       5.00000000       4.67986303       4.36584958      -0.00000000      -7.08638870
H        4.46745297       5.00000000       5.54652970      -0.30948429       0.00000000       6.47684626
H        5.53254703       5.00000000       4.45347030      -4.05636529      -0.00000000       0.60954244
3
Lattice="10.0 0.0 0.0 0.0 10.0 0.0 0.0 0.0 10.0" Properties=species:S:1:pos:R:3:forces:R:3 energy=-155.28632056246 free_energy=-155.28632056246 stress="0.0062238807608105 2.5551247707048e-20 -0.0015764929691231 2.5551247707048e-20 -0.00018283685275871 1.5050714299133e-20 -0.0015764929691231 1.5050714299133e-20 0.007025276115486" pbc="T T T"
O        4.41511732       5.00000000       4.53383665       5.27631744      -0.00000000       4.20384282
H        4.41511732       5.00000000       5.73383665       0.10958661      -0.00000000      -5.54954564
H        5.58488268       5.00000000       4.26616335      -5.38590404       0.00000000       1.34570282
3
Lattice="10.0 0.0 0.0 0.0 10.0 0.0 0.0 0.0 10.0" Properties=species:S:1:pos:R:3:forces:R:3 energy=-156.69030018477 free_energy=-156.69030018477 stress="-0.0053214607021682 -4.1859500068999e-20 0.0015100084285205 -4.1859500068999e-20 -0.00020643881566074 7.4132118973568e-21 0.0015100084285205 7.4132118973568e-21 0.00045461700951492" pbc="T T T"
O        4.57613604       5.00000000       4.60120618      -5.79537792      -0.00000000       2.61372896
H        4.57613604       5.00000000       5.57898395      -0.40182614      -0.00000000      -0.82708542
H        5.42386396       5.00000000       4.42101605       6.19720407       0.00000000      -1.78664354
3
Lattice="10.0 0.0 0.0 0.0 10.0 0.0 0.0 0.0 10.0" Properties=species:S:1:pos:R:3:forces:R:3 energy=-150.17002917704 free_energy=-150.17002917704 stress="-0.024727894030698 -7.5484807152915e-20 0.007049087798957 -7.5484807152915e-20 -0.00024313531007118 1.5192237477733e-19 0.007049087798957 1.5192237477733e-19 -0.028112560081138" pbc="T T T"
O        4.66007065       5.00000000       4.73335487     -34.79654008      -0.00000000     -27.29075044
H        4.66007065       5.00000000       5.43335487      -1.44051583      -0.00000000      37.66387586
H        5.33992935       5.00000000       4.56664513      36.23705592       0.00000000     -10.37312543
3
Lattice="10.0 0.0 0.0 0.0 10.0 0.0 0.0 0.0 10.0" Properties=species:S:1:pos:R:3:forces:R:3 energy=-156.11828769882 free_energy=-156.11828769882 stress="0.0039983385006886 -1.1503001640593e-20 -0.0012160505894036 -1.1503001640593e-20 -0.00018938798890807 -1.2769577732218e-19 -0.0012160505894036 -1.2769577732218e-19 0.0059996425695471" pbc="T T T"
O        4.47329616       5.00000000       4.56562848       3.74667387      -0.00000000       3.80899586
H        4.47329616       5.00000000       5.71007292       0.12688563       0.00000000      -4.96148840
H        5.52670384       5.00000000       4.28992708      -3.87355950       0.00000000       1.15249254
3
Lattice="10.0 0.0 0.0 0.0 10.0 0.0 0.0 0.0 10.0" Properties=species:S:1:pos:R:3:forces:R:3 energy=-156.18896895674 free_energy=-156.18896895674 stress="-0.009627246144035 -1.7091794442147e-19 0.0029667288191354 -1.7091794442147e-19 -0.00021165511036847 1.0308519905905e-19 0.0029667288191354 1.0308519905905e-19 4.3247320130692e-05" pbc="T T T"
O        4.61015498       5.00000000       4.62289737     -12.03171137      -0.00000000       4.74847105
H        4.61015498       5.00000000       5.60067515      -0.23070028      -0.00000000      -0.93708894
H        5.38984502       5.00000000       4.39932485      12.26241165       0.00000000      -3.81138210
3
Lattice="10.0 0.0 0.0 0.0 10.0 0.0 0.0 0.0 10.0" Properties=species:S:1:pos:R:3:forces:R:3 energy=-156.75309332324 free_energy=-156.75309332324 stress="0.0025844520474388 -4.1915936886925e-20 -0.00066653373884267 -4.1915936886925e-20 -0.00019549238880009 -1.1364349001246e-19 -0.00066653373884267 -1.1364349001246e-19 0.003001770278373" pbc="T T T"
O        4.49916910       5.00000000       4.61026974       2.67613059      -0.00000000       2.08174448
H        4.49916910       5.00000000       5.64360307      -0.01152001       0.00000000      -2.74511625
H        5.50083090       5.00000000       4.35639693      -2.66461058       0.00000000       0.66337176
3
Lattice="10.0 0.0 0.0 0.0 10.0 0.0 0.0 0.0 10.0" Properties=species:S:1:pos:R:3:forces:R:3 energy=-156.85256133067 free_energy=-156.85256133067 stress="0.0026442426683007 -3.9859253254915e-21 -0.00047730854231979 -3.9859253254915e-21 -0.00019743942364965 -5.646217610444e-20 -0.00047730854231979 -5.646217610444e-20 0.00085726883100154" pbc="T T T"
O        4.49635102       5.00000000       4.62635934       2.86170955      -0.00000000       0.30369689
H        4.49635102       5.00000000       5.60413711      -0.15192165      -0.00000000      -0.77543748
H        5.50364898       5.00000000       4.39586289      -2.70978790      -0.00000000       0.47174058
3
Lattice="10.0 0.0 0.0 0.0 10.0 0.0 0.0 0.0 10.0" Properties=species:S:1:pos:R:3:forces:R:3 energy=-156.63105206425 free_energy=-156.63105206425 stress="0.0041048115182354 -1.9082125385745e-21 -0.0011160082262439 -1.9082125385745e-21 -0.00019932113975056 4.4599296538125e-20 -0.0011160082262439 4.4599296538125e-20 -0.0016309430047868" pbc="T T T"
O        4.47438130       5.00000000       4.68082105       4.00787388       0.00000000      -3.15639508
H        4.47438130       5.00000000       5.60304328      -0.01990461      -0.00000000       2.09641140
H        5.52561870       5.00000000       4.39695672      -3.98796927      -0.00000000       1.05998368
3
Lattice="10.0 0.0 0.0 0.0 10.0 0.0 0.0 0.0 10.0" Properties=species:S:1:pos:R:3:forces:R:3 energy=-155.32210885772 free_energy=-155.32210885772 stress="-0.0098345927411369 1.0945165769356e-20 0.0026794597016612 1.0945165769356e-20 -0.00020330402636961 2.2457584989188e-21 0.0026794597016612 2.2457584989188e-21 0.0060367368892245" pbc="T T T"
O        4.60846771       5.00000000       4.50572498     -12.44068919       0.00000000       9.07999820
H        4.60846771       5.00000000       5.70572498      -0.03517589      -0.00000000      -5.65131757
H        5.39153229       5.00000000       4.29427502      12.47586507       0.00000000      -3.42868063
3
Lattice="10.0 0.0 0.0 0.0 10.0 0.0 0.0 0.0 10.0" Properties=species:S:1:pos:R:3:forces:R:3 energy=-154.64776510201 free_energy=-154.64776510201 stress="0.0053831074620943 5.8177369137016e-20 -0.0012497367709926 5.8177369137016e-20 -0.00020865311658498 -2.0007754223112e-19 -0.0012497367709926 -2.0007754223112e-19 -0.016835975532161" pbc="T T T"
O        4.44642351       5.00000000       4.76710612       5.19040289      -0.00000000     -23.84392987
H        4.44642351       5.00000000       5.52266168      -0.24522266       0.00000000      22.71653988
H        5.55357649       5.00000000       4.47733832      -4.94518023      -0.00000000       1.12738999
3
Lattice="10.0 0.0 0.0 0.0 10.0 0.0 0.0 0.0 10.0" Properties=species:S:1:pos:R:3:forces:R:3 energy=-155.19027487997 free_energy=-155.19027487997 stress="-0.015979551838772 -1.2141636418539e-19 0.0046252444800438 -1.2141636418539e-19 -0.00021870698468382 1.7274441654322e-19 0.0046252444800438 1.7274441654322e-19 -0.00306912439701" pbc="T T T"
O        4.63453203       5.00000000       4.63454040     -21.26487759      -0.00000000       4.35839913
H        4.63453203       5.00000000       5.55676262      -0.49980076      -0.00000000       1.97579809
H        5.36546797       5.00000000       4.44323738      21.76467836       0.00000000      -6.33419723
3
Lattice="10.0 0.0 0.0 0.0 10.0 0.0 0.0 0.0 10.0" Properties=species:S:1:pos:R:3:forces:R:3 energy=-155.32046316201 free_energy=-155.32046316201 stress="0.0062934140897151 -9.4288800437979e-20 -0.0015251125961933 -9.4288800437979e-20 -0.00020276858780205 -1.9520873644324e-19 -0.0015251125961933 -1.9520873644324e-19 -0.010122852767026" pbc="T T T"
O        4.41838992       5.00000000       4.74185447       5.60176531      -0.00000000     -14.26834044
H        4.41838992       5.00000000       5.55296558      -0.11640646       0.00000000      12.95869140
H        5.58161008       5.00000000       4.44703442      -5.48535885       0.00000000       1.30964904
3
Lattice="10.0 0.0 0.0 0.0 10.0 0.0 0.0 0.0 10.0" Properties=species:S:1:pos:R:3:forces:R:3 energy=-156.30971759199 free_energy=-156.30971759199 stress="0.002555925468469 7.5014389074914e-20 -0.00060270420274511 7.5014389074914e-20 -0.00019064896156361 -1.4040866929948e-19 -0.00060270420274511 -1.4040866929948e-19 0.0058014889052467" pbc="T T T"
O        4.49635102       5.00000000       4.54302600       2.62250072      -0.00000000       4.35877689
H        4.49635102       5.00000000       5.68747045      -0.00258645       0.00000000      -4.95496614
H        5.50364898       5.00000000       4.31252955      -2.61991427      -0.00000000       0.59618925
3
Lattice="10.0 0.0 0.0 0.0 10.0 0.0 0.0 0.0 10.0" Properties=species:S:1:pos:R:3:forces:R:3 energy=-155.87026899426 free_energy=-155.87026899426 stress="0.0052473481617985 4.8376303339546e-20 -0.00136634192777 4.8376303339546e-20 -0.00018660751570137 -1.3763523072113e-19 -0.00136634192777 -1.3763523072113e-19 0.005975691157669" pbc="T T T"
O        4.44320210       5.00000000       4.55974130       4.69523548      -0.00000000       3.71122430
H        4.44320210       5.00000000       5.70418575       0.08822124       0.00000000      -4.93623496
H        5.55679790       5.00000000       4.29581425      -4.78345672      -0.00000000       1.22501066
3
Lattice="10.0 0.0 0.0 0.0 10.0 0.0 0.0 0.0 10.0" Properties=species:S:1:pos:R:3:forces:R:3 energy=-152.79293789297 free_energy=-152.79293789297 stress="-0.0097627683815378 -1.9944149512201e-19 0.00316322810042 -1.9944149512201e-19 -0.00023201671399175 1.4735540457954e-19 0.00316322810042 1.4735540457954e-19 -0.027052051703656" pbc="T T T"
O        4.60611361       5.00000000       4.74658581     -11.17328690      -0.00000000     -33.50419742
H        4.60611361       5.00000000       5.44658581      -1.12605726      -0.00000000      37.52501151
H        5.39388639       5.00000000       4.55341419      12.29934415       0.00000000      -4.02081409
3
Lattice="10.0 0.0 0.0 0.0 10.0 0.0 0.0 0.0 10.0" Properties=species:S:1:pos:R:3:forces:R:3 energy=-152.78677230214 free_energy=-152.78677230214 stress="-0.024780634390022 -9.5315454379822e-20 0.0066692237230894 -9.5315454379822e-20 -0.00023207265547334 -1.416701247091e-19 0.0066692237230894 -1.416701247091e-19 -0.012097624044766" pbc="T T T"
O        4.65943430       5.00000000       4.67516000     -35.25111440      -0.00000000      -3.12342815
H        4.65943430       5.00000000       5.48627111      -1.00566186       0.00000000      12.92008824
H        5.34056570       5.00000000       4.51372889      36.25677626       0.00000000      -9.79666009
3
Lattice="10.0 0.0 0.0 0.0 10.0 0.0 0.0 0.0 10.0" Properties=species:S:1:pos:R:3:forces:R:3 energy=-153.56043249426 free_energy=-153.56043249426 stress="-0.024802051558436 -1.3648093778646e-19 0.0063952742261059 -1.3648093778646e-19 -0.00021963447977174 2.3347884923953e-20 0.0063952742261059 2.3347884923953e-20 -0.00068832154540413" pbc="T T T"
O        4.65943430       5.00000000       4.59182667     -35.75318776      -0.00000000      10.29137112
H        4.65943430       5.00000000       5.56960444      -0.54647173      -0.00000000      -0.89602426
H        5.34056570       5.00000000       4.43039556      36.29965950       0.00000000      -9.39534686
3
Lattice="10.0 0.0 0.0 0.0 10.0 0.0 0.0 0.0 10.0" Properties=species:S:1:pos:R:3:forces:R:3 energy=-155.62147619602 free_energy=-155.62147619602 stress="-0.0097668988004148 -9.7938000844787e-20 0.0027658359405469 -9.7938000844787e-20 -0.00020504092854073 -1.5926315415751e-19 0.0027658359405469 -1.5926315415751e-19 0.0050083791887967" pbc="T T T"
O        4.60929959       5.00000000       4.53653667     -12.35822213      -0.00000000       8.61357493
H        4.60929959       5.00000000       5.68098112      -0.05759165       0.00000000      -5.06717854
H        5.39070041       5.00000000       4.31901888      12.41581378       0.00000000      -3.54639639
3
Lattice="10.0 0.0 0.0 0.0 10.0 0.0 0.0 0.0 10.0" Properties=species:S:1:pos:R:3:forces:R:3 energy=-155.18263956541 free_energy=-155.18263956541 stress="-0.016116291263887 -1.0068530177745e-19 0.0044487639166225 -1.0068530177745e-19 -0.00021856258315939 1.7052672399586e-19 0.0044487639166225 1.7052672399586e-19 -0.0029748672161266" pbc="T T T"
O        4.63309213       5.00000000       4.62885923     -21.30938212      -0.00000000       4.06957886
H        4.63309213       5.00000000       5.55108145      -0.55657806      -0.00000000       1.99929723
H        5.36690787       5.00000000       4.44891855      21.86596018       0.00000000      -6.06887609
3
Lattice="10.0 0.0 0.0 0.0 10.0 0.0 0.0 0.0 10.0" Properties=species:S:1:pos:R:3:forces:R:3 energy=-152.69851522094 free_energy=-152.69851522094 stress="0.0063836729600166 -1.2110022669184e-19 -0.0012712693850917 -1.2110022669184e-19 -0.00021075058485262 3.3309690777102e-20 -0.0012712693850917 3.3309690777102e-20 -0.025952548522348" pbc="T T T"
O        4.41617308       5.00000000       4.78836952       5.92576072      -0.00000000     -38.60092609
H        4.41617308       5.00000000       5.48836952      -0.38003582      -0.00000000      37.51354703
H        5.58382692       5.00000000       4.51163048      -5.54572491       0.00000000       1.08737906
3
Lattice="10.0 0.0 0.0 0.0 10.0 0.0 0.0 0.0 10.0" Properties=species:S:1:pos:R:3:forces:R:3 energy=-156.85544716722 free_energy=-156.85544716722 stress="0.0025779171772712 -8.7307282559961e-22 -0.00080673978179167 -8.7307282559961e-22 -0.00019898353887784 -8.3183113210387e-21 -0.00080673978179167 -8.3183113210387e-21 0.0010454502250645" pbc="T T T"
O        4.50334812       5.00000000       4.65352374       2.63975428      -0.00000000       0.02150381
H        4.50334812       5.00000000       5.63130152       0.04160972       0.00000000      -0.83168974
H        5.49665188       5.00000000       4.36869848      -2.68136401      -0.00000000       0.81018594
3
Lattice="10.0 0.0 0.0 0.0 10.0 0.0 0.0 0.0 10.0" Properties=species:S:1:pos:R:3:forces:R:3 energy=-156.30712865336 free_energy=-156.30712865336 stress="0.005199790582318 9.9063381634395e-20 -0.0015598920950079 9.9063381634395e-20 -0.00019190625294405 -1.0053327275127e-19 -0.0015598920950079 -1.0053327275127e-19 0.0032331471378379" pbc="T T T"
O        4.44756402       5.00000000       4.63250694       4.65424167       0.00000000       1.30712149
H        4.44756402       5.00000000       5.66584027       0.12647069       0.00000000      -2.71725057
H        5.55243598       5.00000000       4.33415973      -4.78071236      -0.00000000       1.41012907
3
Lattice="10.0 0.0 0.0 0.0 10.0 0.0 0.0 0.0 10.0" Properties=species:S:1:pos:R:3:forces:R:3 energy=-156.07922244544 free_energy=-156.07922244544 stress="0.0062838301550823 -1.0277841913676e-19 -0.0014794552414965 -1.0277841913676e-19 -0.00019494667674368 2.7311788496447e-20 -0.0014794552414965 2.7311788496447e-20 -0.0016449034884436" pbc="T T T"
O        4.41617308       5.00000000       4.67725841       5.48712028       0.00000000      -3.43117556
H        4.41617308       5.00000000       5.59948063      -0.03469285      -0.00000000       2.16581400
H        5.58382692       5.00000000       4.40051937      -5.45242743       0.00000000       1.26536156
3
Lattice="10.0 0.0 0.0 0.0 10.0 0.0 0.0 0.0 10.0" Properties=species:S:1:pos:R:3:forces:R:3 energy=-156.92404320262 free_energy=-156.92404320262 stress="0.00074448585877836 2.0244694347598e-19 8.0375900095776e-05 2.0244694347598e-19 -0.00020312128619415 8.6749512240591e-21 8.0375900095776e-05 8.6749512240591e-21 -0.0019643194506982" pbc="T T T"
O        4.52342893       5.00000000       4.64794097       1.15858377       0.00000000      -2.00452987
H        4.52342893       5.00000000       5.57016320      -0.29259241      -0.00000000       2.09186113
H        5.47657107       5.00000000       4.42983680      -0.86599135      -0.00000000      -0.08733125
3
Lattice="10.0 0.0 0.0 0.0 10.0 0.0 0.0 0.0 10.0" Properties=species:S:1:pos:R:3:forces:R:3 energy=-156.66199252018 free_energy=-156.66199252018 stress="0.0040682611944638 3.2177261884544e-20 -0.0011629503858175 3.2177261884544e-20 -0.00019635187137538 -1.5526984147067e-20 -0.0011629503858175 -1.5526984147067e-20 0.0010892433587292" pbc="T T T"
O        4.47438130       5.00000000       4.65304328       3.91194511       0.00000000      -0.31355057
H        4.47438130       5.00000000       5.63082105       0.03963616      -0.00000000      -0.79102385
H        5.52561870       5.00000000       4.36917895      -3.95158127      -0.00000000       1.10457442
3
Lattice="10.0 0.0 0.0 0.0 10.0 0.0 0.0 0.0 10.0" Properties=species:S:1:pos:R:3:forces:R:3 energy=-154.90817351401 free_energy=-154.90817351401 stress="0.0042141700231406 2.5166341604843e-20 -0.00094573258239822 2.5166341604843e-20 -0.00021065506576669 -1.7472020334938e-19 -0.00094573258239822 -1.7472020334938e-19 -0.016889426518682" pbc="T T T"
O        4.47438130       5.00000000       4.76415439       4.38870316      -0.00000000     -23.58960026
H        4.47438130       5.00000000       5.51970994      -0.29053211       0.00000000      22.69139183
H        5.52561870       5.00000000       4.48029006      -4.09817104      -0.00000000       0.89820843
3
Lattice="10.0 0.0 0.0 0.0 10.0 0.0 0.0 0.0 10.0" Properties=species:S:1:pos:R:3:forces:R:3 energy=-156.07858113826 free_energy=-156.07858113826 stress="0.0061835346114604 -9.9432563911236e-20 -0.0017662463297128 -9.9432563911236e-20 -0.00019592783627173 5.9104251911191e-20 -0.0017662463297128 5.9104251911191e-20 -0.0014906990541075" pbc="T T T"
O        4.42074674       5.00000000       4.69530393       5.33197972       0.00000000      -3.65955782
H        4.42074674       5.00000000       5.61752615       0.07741139      -0.00000000       2.13649877
H        5.57925326       5.00000000       4.38247385      -5.40939111       0.00000000       1.52305905
3
Lattice="10.0 0.0 0.0 0.0 10.0 0.0 0.0 0.0 10.0" Properties=species:S:1:pos:R:3:forces:R:3 energy=-154.35079363376 free_energy=-154.35079363376 stress="0.0062236497703147 -1.6088544903579e-19 -0.0017508813200861 -1.6088544903579e-19 -0.0002077564368748 -1.278959888347e-19 -0.0017508813200861 -1.278959888347e-19 -0.01665038290352" pbc="T T T"
O        4.42324298       5.00000000       4.78760464       5.55518076      -0.00000000     -24.21922491
H        4.42324298       5.00000000       5.54316019      -0.08162682       0.00000000      22.70260112
H        5.57675702       5.00000000       4.45683981      -5.47355395       0.00000000       1.51662378
3
Lattice="10.0 0.0 0.0 0.0 10.0 0.0 0.0 0.0 10.0" Properties=species:S:1:pos:R:3:forces:R:3 energy=-155.57362039432 free_energy=-155.57362039432 stress="0.0061223805693012 7.0295987514621e-20 -0.0018344743676036 7.0295987514621e-20 -0.00018568948913266 -1.0574817748603e-19 -0.0018344743676036 -1.0574817748603e-19 0.0061418082111455" pbc="T T T"
O        4.41955087       5.00000000       4.57969488       5.15880232      -0.00000000       3.36357915
H        4.41955087       5.00000000       5.72413932       0.18207829      -0.00000000      -4.94200104
H        5.58044913       5.00000000       4.27586068      -5.34088061      -0.00000000       1.57842189
3
Lattice="10.0 0.0 0.0 0.0 10.0 0.0 0.0 0.0 10.0" Properties=species:S:1:pos:R:3:forces:R:3 energy=-156.39730804349 free_energy=-156.39730804349 stress="-0.0053381029133713 -9.9649974306609e-20 0.0014173132685806 -9.9649974306609e-20 -0.00020179059448941 -1.2520730252568e-19 0.0014173132685806 -1.2520730252568e-19 0.004125243643012" pbc="T T T"
O        4.57758473       5.00000000       4.55221536      -6.04429388      -0.00000000       5.79341500
H        4.57758473       5.00000000       5.64110425      -0.19417548       0.00000000      -4.11025346
H        5.42241527       5.00000000       4.35889575       6.23846936       0.00000000      -1.68316153
3
Lattice="10.0 0.0 0.0 0.0 10.0 0.0 0.0 0.0 10.0" Properties=species:S:1:pos:R:3:forces:R:3 energy=-156.37307405124 free_energy=-156.37307405124 stress="0.0053795997553687 3.6798984863381e-20 -0.0010781851359353 3.6798984863381e-20 -0.00019614504994646 3.2572062101795e-20 -0.0010781851359353 3.2572062101795e-20 -0.0017626189515161" pbc="T T T"
O        4.44122190       5.00000000       4.66219870       5.02987723       0.00000000      -3.12813455
H        4.44122190       5.00000000       5.58442092      -0.14044223      -0.00000000       2.16514608
H        5.55877810       5.00000000       4.41557908      -4.88943500       0.00000000       0.96298847
3
Lattice="10.0 0.0 0.0 0.0 10.0 0.0 0.0 0.0 10.0" Properties=species:S:1:pos:R:3:forces:R:3 energy=-152.99943381078 free_energy=-152.99943381078 stress="0.0054425311739221 9.1038625788522e-20 -0.0010606920134618 9.1038625788522e-20 -0.00021251273844328 4.655526672849e-20 -0.0010606920134618 4.655526672849e-20 -0.025982398683316" pbc="T T T"
O        4.44424249       5.00000000       4.78627860       5.40901197       0.00000000     -38.45062801
H        4.44424249       5.00000000       5.48627860      -0.42781957      -0.00000000      37.49771935
H        5.55575751       5.00000000       4.51372140      -4.98119240      -0.00000000       0.95290866
3
Lattice="10.0 0.0 0.0 0.0 10.0 0.0 0.0 0.0 10.0" Properties=species:S:1:pos:R:3:forces:R:3 energy=-154.420294483 free_energy=-154.420294483 stress="-0.0098957088345213 -5.2849293343034e-20 0.0029447541649377 -5.2849293343034e-20 -0.00022704168532603 -1.7508809632652e-19 0.0029447541649377 -1.7508809632652e-19 -0.017847401040294" pbc="T T T"
O        4.60397280       5.00000000       4.70961655     -11.37480167      -0.00000000     -19.00963863
H        4.60397280       5.00000000       5.46517211      -1.02843759       0.00000000      22.73312668
H        5.39602720       5.00000000       4.53482789      12.40323926       0.00000000      -3.72348806
3
Lattice="10.0 0.0 0.0 0.0 10.0 0.0 0.0 0.0 10.0" Properties=species:S:1:pos:R:3:forces:R:3 energy=-152.99702574131 free_energy=-152.99702574131 stress="0.0054573164117393 -3.1102890878299e-21 -0.00099463666694992 -3.1102890878299e-21 -0.00021236323318723 8.7596247121366e-20 -0.00099463666694992 8.7596247121366e-20 -0.026012853058483" pbc="T T T"
O        4.44320210       5.00000000       4.78196353       5.44732310       0.00000000     -38.39817885
H        4.44320210       5.00000000       5.48196353      -0.46224099      -0.00000000      37.50640373
H        5.55679790       5.00000000       4.51803647      -4.98508211      -0.00000000       0.89177512
3
Lattice="10.0 0.0 0.0 0.0 10.0 0.0 0.0 0.0 10.0" Properties=species:S:1:pos:R:3:forces:R:3 energy=-155.16453157433 free_energy=-155.16453157433 stress="-0.0017537641746278 -1.2373415245479e-19 0.00097764296478094 -1.2373415245479e-19 -0.00021831497337692 -1.6444277686464e-19 0.00097764296478094 -1.6444277686464e-19 -0.017394797689301" pbc="T T T"
O        4.54896527       5.00000000       4.71809261      -1.03571971      -0.00000000     -21.64023381
H        4.54896527       5.00000000       5.47364817      -0.82301138       0.00000000      22.72805376
H        5.45103473       5.00000000       4.52635183       1.85873109       0.00000000      -1.08781995
3
Lattice="10.0 0.0 0.0 0.0 10.0 0.0 0.0 0.0 10.0" Properties=species:S:1:pos:R:3:forces:R:3 energy=-156.07945818506 free_energy=-156.07945818506 stress="-0.0019565631300723 -1.2332053590527e-19 0.00047574030856347 -1.2332053590527e-19 -0.00019498959817465 6.8393970020813e-20 0.00047574030856347 6.8393970020813e-20 0.0065878444063145" pbc="T T T"
O        4.55131820       5.00000000       4.50633954      -2.07185491      -0.00000000       6.13083584
H        4.55131820       5.00000000       5.70633954      -0.02565330      -0.00000000      -5.59654740
H        5.44868180       5.00000000       4.29366046       2.09750821       0.00000000      -0.53428844
3
Lattice="10.0 0.0 0.0 0.0 10.0 0.0 0.0 0.0 10.0" Properties=species:S:1:pos:R:3:forces:R:3 energy=-155.8275810591 free_energy=-155.8275810591 stress="0.0062184942717246 -5.1914365988056e-20 -0.0015940218402894 -5.1914365988056e-20 -0.00018687826001878 -1.0977027274542e-19 -0.0015940218402894 -1.0977027274542e-19 0.0047506535757218" pbc="T T T"
O        4.41617308       5.00000000       4.59392508       5.30218207      -0.00000000       2.64886153
H        4.41617308       5.00000000       5.68281397       0.09053965       0.00000000      -4.01216161
H        5.58382692       5.00000000       4.31718603      -5.39272172       0.00000000       1.36330007
3
Lattice="10.0 0.0 0.0 0.0 10.0 0.0 0.0 0.0 10.0" Properties=species:S:1:pos:R:3:forces:R:3 energy=-155.94212290987 free_energy=-155.94212290987 stress="-0.0050258727058034 -1.1774638372462e-19 0.0017887703542315 -1.1774638372462e-19 -0.00021817040930473 -2.381224782031e-19 0.0017887703542315 -2.381224782031e-19 -0.010913866575941" pbc="T T T"
O        4.58253929       5.00000000       4.71065258      -5.43022485      -0.00000000     -10.67181130
H        4.58253929       5.00000000       5.52176369      -0.50514011       0.00000000      12.81947377
H        5.41746071       5.00000000       4.47823631       5.93536497       0.00000000      -2.14766247
3
Lattice="10.0 0.0 0.0 0.0 10.0 0.0 0.0 0.0 10.0" Properties=species:S:1:pos:R:3:forces:R:3 energy=-156.0783244909 free_energy=-156.0783244909 stress="0.0063268479921566 1.9412314519515e-20 -0.0013319057999914 1.9412314519515e-20 -0.00019449488978297 7.4113406798803e-20 -0.0013319057999914 7.4113406798803e-20 -0.0017171102053449" pbc="T T T"
O        4.41409675       5.00000000       4.66818461       5.56154130       0.00000000      -3.31509270
H        4.41409675       5.00000000       5.59040683      -0.09193912      -0.00000000       2.18020758
H        5.58590325       5.00000000       4.40959317      -5.46960218      -0.00000000       1.13488513
3
Lattice="10.0 0.0 0.0 0.0 10.0 0.0 0.0 0.0 10.0" Properties=species:S:1:pos:R:3:forces:R:3 energy=-153.56451649239 free_energy=-153.56451649239 stress="-0.024704852326484 -1.5461755885751e-19 0.0065487115621309 -1.5461755885751e-19 -0.00021970237602476 4.4351202834489e-20 0.0065487115621309 4.4351202834489e-20 -0.00076511816317894" pbc="T T T"
O        4.66007065       5.00000000       4.59446599     -35.70409130      -0.00000000      10.54603357
H        4.66007065       5.00000000       5.57224376      -0.52030530      -0.00000000      -0.90743568
H        5.33992935       5.00000000       4.42775624      36.22439660       0.00000000      -9.63859789
3
Lattice="10.0 0.0 0.0 0.0 10.0 0.0 0.0 0.0 10.0" Properties=species:S:1:pos:R:3:forces:R:3 energy=-152.69636825882 free_energy=-152.69636825882 stress="0.0064015635830458 7.2775193581437e-21 -0.001198770561198 7.2775193581437e-21 -0.00021058549749665 5.8537740936169e-20 -0.001198770561198 5.8537740936169e-20 -0.025984972038061" pbc="T T T"
O        4.41511732       5.00000000       4.78383665       5.96474589       0.00000000     -38.54507574
H        4.41511732       5.00000000       5.48383665      -0.41381725      -0.00000000      37.52167379
H        5.58488268       5.00000000       4.51616335      -5.55092864      -0.00000000       1.02340195
3
Lattice="10.0 0.0 0.0 0.0 10.0 0.0 0.0 0.0 10.0" Properties=species:S:1:pos:R:3:forces:R:3 energy=-156.85567326298 free_energy=-156.85567326298 stress="0.002600315071243 -8.0479488138036e-21 -0.00071502226122649 -8.0479488138036e-21 -0.00019850852015986 5.2798896396907e-20 -0.00071502226122649 5.2798896396907e-20 0.00098898231963711" pbc="T T T"
O        4.50119858       5.00000000       4.64580184       2.70482199      -0.00000000       0.10084771
H        4.50119858       5.00000000       5.62357962      -0.01259455      -0.00000000      -0.81556783
H        5.49880142       5.00000000       4.37642038      -2.69222744       0.00000000       0.71472013
3
Lattice="10.0 0.0 0.0 0.0 10.0 0.0 0.0 0.0 10.0" Properties=species:S:1:pos:R:3:forces:R:3 energy=-156.15499785114 free_energy=-156.15499785114 stress="-0.0097735810922419 -5.5658834541278e-20 0.0028661831578197 -5.5658834541278e-20 -0.00021423118642017 1.5092232489031e-19 0.0028661831578197 1.5092232489031e-19 -0.0025999684512949" pbc="T T T"
O        4.60687467       5.00000000       4.63852714     -11.90544003       0.00000000       1.65354137
H        4.60687467       5.00000000       5.56074937      -0.43989749      -0.00000000       1.99801108
H        5.39312533       5.00000000       4.43925063      12.34533752       0.00000000      -3.65155244
3
Lattice="10.0 0.0 0.0 0.0 10.0 0.0 0.0 0.0 10.0" Properties=species:S:1:pos:R:3:forces:R:3 energy=-156.37466216497 free_energy=-156.37466216497 stress="0.0053448894622443 7.0624321341467e-20 -0.0012134578714641 7.0624321341467e-20 -0.00019657049866224 3.8592174516627e-20 -0.0012134578714641 3.8592174516627e-20 -0.0016956374627946" pbc="T T T"
O        4.44320210       5.00000000       4.67085241       4.95787386       0.00000000      -3.23769218
H        4.44320210       5.00000000       5.59307464      -0.08200225      -0.00000000       2.14973151
H        5.55679790       5.00000000       4.40692536      -4.87587162      -0.00000000       1.08796067
3
Lattice="10.0 0.0 0.0 0.0 10.0 0.0 0.0 0.0 10.0" Properties=species:S:1:pos:R:3:forces:R:3 energy=-154.93838521158 free_energy=-154.93838521158 stress="-0.0052266691589085 1.8196924378934e-20 0.0018053066280761 1.8196924378934e-20 -0.00022238551636023 -1.5634974640635e-19 0.0018053066280761 -1.5634974640635e-19 -0.017576562336342" pbc="T T T"
O        4.57613604       5.00000000       4.71231729      -5.14077172      -0.00000000     -20.59593925
H        4.57613604       5.00000000       5.46787284      -0.93976544       0.00000000      22.73053410
H        5.42386396       5.00000000       4.53212716       6.08053716      -0.00000000      -2.13459485
3
Lattice="10.0 0.0 0.0 0.0 10.0 0.0 0.0 0.0 10.0" Properties=species:S:1:pos:R:3:forces:R:3 energy=-156.82683417804 free_energy=-156.82683417804 stress="0.0026189321235511 1.0495162716811e-19 -0.00075767311441183 1.0495162716811e-19 -0.00020190049090859 1.1600961361745e-19 -0.00075767311441183 1.1600961361745e-19 -0.0016763972235267" pbc="T T T"
O        4.50334812       5.00000000       4.68130152       2.74554788       0.00000000      -2.81433914
H        4.50334812       5.00000000       5.60352374      -0.02195902      -0.00000000       2.05355573
H        5.49665188       5.00000000       4.39647626      -2.72358886      -0.00000000       0.76078341
3
Lattice="10.0 0.0 0.0 0.0 10.0 0.0 0.0 0.0 10.0" Properties=species:S:1:pos:R:3:forces:R:3 energy=-151.84685664874 free_energy=-151.84685664874 stress="-0.015803939402976 -1.8631634425721e-19 0.0051663554558533 -1.8631634425721e-19 -0.00023711722362972 7.4999893983925e-20 0.0051663554558533 7.4999893983925e-20 -0.027712702425409" pbc="T T T"
O        4.63605989       5.00000000       4.75130965     -20.47249330      -0.00000000     -30.41941178
H        4.63605989       5.00000000       5.45130965      -1.12906039      -0.00000000      37.52252102
H        5.36394011       5.00000000       4.54869035      21.60155369       0.00000000      -7.10310924
3
Lattice="10.0 0.0 0.0 0.0 10.0 0.0 0.0 0.0 10.0" Properties=species:S:1:pos:R:3:forces:R:3 energy=-156.85573436574 free_energy=-156.85573436574 stress="0.00066534224739464 1.6979495330465e-19 -0.00022427795937234 1.6979495330465e-19 -0.00019875363770959 -1.6289412475812e-19 -0.00022427795937234 -1.6289412475812e-19 0.0029438738005803" pbc="T T T"
O        4.52901868       5.00000000       4.61443994       0.77668677       0.00000000       2.55704632
H        4.52901868       5.00000000       5.64777328       0.01441462       0.00000000      -2.79218809
H        5.47098132       5.00000000       4.35222672      -0.79110140      -0.00000000       0.23514178
3
Lattice="10.0 0.0 0.0 0.0 10.0 0.0 0.0 0.0 10.0" Properties=species:S:1:pos:R:3:forces:R:3 energy=-153.46480837547 free_energy=-153.46480837547 stress="0.0027823587833588 -2.5559101468945e-20 -0.00041991983199057 -2.5559101468945e-20 -0.00021709735737715 7.3275112139001e-20 -0.00041991983199057 7.3275112139001e-20 -0.026097666780652" pbc="T T T"
O        4.50119858       5.00000000       4.78469073       3.39379460       0.00000000     -37.87125855
H        4.50119858       5.00000000       5.48469073      -0.51227562      -0.00000000      37.45227149
H        5.49880142       5.00000000       4.51530927      -2.88151898       0.00000000       0.41898706
3
Lattice="10.0 0.0 0.0 0.0 10.0 0.0 0.0 0.0 10.0" Properties=species:S:1:pos:R:3:forces:R:3 energy=-156.66169700678 free_energy=-156.66169700678 stress="0.00062930604240074 1.5815117928873e-19 -0.00026539675045251 1.5815117928873e-19 -0.0001966205750026 -1.4479120169672e-19 -0.00026539675045251 -1.4479120169672e-19 0.0045450271061953" pbc="T T T"
O        4.52901868       5.00000000       4.58666217       0.69237371       0.00000000       3.82998046
H        4.52901868       5.00000000       5.67555106       0.06049427       0.00000000      -4.10881460
H        5.47098132       5.00000000       4.32444894      -0.75286797      -0.00000000       0.27883414
3
Lattice="10.0 0.0 0.0 0.0 10.0 0.0 0.0 0.0 10.0" Properties=species:S:1:pos:R:3:forces:R:3 energy=-156.16095599899 free_energy=-156.16095599899 stress="-0.009685095524149 -6.1767538951774e-20 0.0029501413001601 -6.1767538951774e-20 -0.00021444772173406 9.7173268743793e-20 0.0029501413001601 9.7173268743793e-20 -0.0026459334333605" pbc="T T T"
O        4.60846771       5.00000000       4.64461387     -11.89968586       0.00000000       1.79777900
H        4.60846771       5.00000000       5.56683609      -0.38272485      -0.00000000       1.97583833
H        5.39153229       5.00000000       4.43316391      12.28241071       0.00000000      -3.77361733
3
Lattice="10.0 0.0 0.0 0.0 10.0 0.0 0.0 0.0 10.0" Properties=species:S:1:pos:R:3:forces:R:3 energy=-156.144963462 free_energy=-156.144963462 stress="0.0053384286050168 1.1476089363214e-19 -0.0012962959642619 1.1476089363214e-19 -0.00020047584956224 -2.6774797805152e-19 -0.0012962959642619 -2.6774797805152e-19 -0.005263183419185" pbc="T T T"
O        4.44531631       5.00000000       4.70725215       4.98427664      -0.00000000      -7.61988959
H        4.44531631       5.00000000       5.57391882      -0.09358786       0.00000000       6.45297029
H        5.55468369       5.00000000       4.42608118      -4.89068878      -0.00000000       1.16691930
3
Lattice="10.0 0.0 0.0 0.0 10.0 0.0 0.0 0.0 10.0" Properties=species:S:1:pos:R:3:forces:R:3 energy=-155.87169444783 free_energy=-155.87169444783 stress="0.0053072851132849 4.0587137416504e-20 -0.0011677816476945 4.0587137416504e-20 -0.00018585335704232 -2.0444274349478e-19 -0.0011677816476945 -2.0444274349478e-19 0.005879593213191" pbc="T T T"
O        4.44028221       5.00000000       4.54674947       4.79373122      -0.00000000       3.88118834
H        4.44028221       5.00000000       5.69119391       0.01791574       0.00000000      -4.92232002
H        5.55971779       5.00000000       4.30880609      -4.81164696      -0.00000000       1.04113169
3
Lattice="10.0 0.0 0.0 0.0 10.0 0.0 0.0 0.0 10.0" Properties=species:S:1:pos:R:3:forces:R:3 energy=-153.49056747567 free_energy=-153.49056747567 stress="-0.015793227354569 -1.5620372341513e-19 0.0050634751985673 -1.5620372341513e-19 -0.0002319116431214 -1.4659666370664e-19 0.0050634751985673 -1.4659666370664e-19 -0.018554792783331" pbc="T T T"
O        4.63605989       5.00000000       4.72353188     -20.67834764      -0.00000000     -15.70599319
H        4.63605989       5.00000000       5.47908743      -0.91211317       0.00000000      22.66803897
H        5.36394011       5.00000000       4.52091257      21.59046081       0.00000000      -6.96204579
3
Lattice="10.0 0.0 0.0 0.0 10.0 0.0 0.0 0.0 10.0" Properties=species:S:1:pos:R:3:forces:R:3 energy=-156.37559041851 free_energy=-156.37559041851 stress="-0.0019002726932227 1.0585842453434e-19 0.00046032319195522 1.0585842453434e-19 -0.00019754192530956 -1.3524429538147e-19 0.00046032319195522 -1.3524429538147e-19 0.0056120359139127" pbc="T T T"
O        4.55483315       5.00000000       4.54798563      -2.07873104      -0.00000000       5.54151898
H        4.55483315       5.00000000       5.69243008       0.02730182       0.00000000      -5.02029521
H        5.44516685       5.00000000       4.30756992       2.05142922      -0.00000000      -0.52122377
3
Lattice="10.0 0.0 0.0 0.0 10.0 0.0 0.0 0.0 10.0" Properties=species:S:1:pos:R:3:forces:R:3 energy=-156.14530882293 free_energy=-156.14530882293 stress="-0.0053011737747716 -6.0421094196759e-20 0.0014044044701001 -6.0421094196759e-20 -0.00020053044731863 -1.2239604117111e-19 0.0014044044701001 -1.2239604117111e-19 0.0053778146008317" pbc="T T T"
O        4.57994828       5.00000000       4.53424057      -6.16034390      -0.00000000       6.70421485
H        4.57994828       5.00000000       5.67868501      -0.06888075       0.00000000      -5.02690744
H        5.42005172       5.00000000       4.32131499       6.22922465       0.00000000      -1.67730741
3
Lattice="10.0 0.0 0.0 0.0 10.0 0.0 0.0 0.0 10.0" Properties=species:S:1:pos:R:3:forces:R:3 energy=-156.4340291671 free_energy=-156.4340291671 stress="-0.0052637232222595 9.3371966722429e-21 0.0016476910498445 9.3371966722429e-21 -0.00021339955221643 3.535437382222e-20 0.0016476910498445 3.535437382222e-20 -0.0059319171144818" pbc="T T T"
O        4.57613604       5.00000000       4.65676173      -5.50085285       0.00000000      -4.45212907
H        4.57613604       5.00000000       5.52342840      -0.62647423      -0.00000000       6.40102423
H        5.42386396       5.00000000       4.47657160       6.12732708      -0.00000000      -1.94889516
3
Lattice="10.0 0.0 0.0 0.0 10.0 0.0 0.0 0.0 10.0" Properties=species:S:1:pos:R:3:forces:R:3 energy=-153.26124299979 free_energy=-153.26124299979 stress="-0.02464433078483 -1.1256950786941e-19 0.0065641258511584 -1.1256950786941e-19 -0.00021466692946633 -4.1903751228739e-20 0.0065641258511584 -4.1903751228739e-20 0.0028512735626541" pbc="T T T"
O        4.66072745       5.00000000       4.54154473     -35.90146620      -0.00000000      13.86531461
H        4.66072745       5.00000000       5.63043362      -0.30869717       0.00000000      -4.18471467
H        5.33927255       5.00000000       4.36956638      36.21016337       0.00000000      -9.68059994
3
Lattice="10.0 0.0 0.0 0.0 10.0 0.0 0.0 0.0 10.0" Properties=species:S:1:pos:R:3:forces:R:3 energy=-151.83415695241 free_energy=-151.83415695241 stress="-0.015957030489902 -9.9058840837202e-20 0.0049971978754941 -9.9058840837202e-20 -0.00023724054275287 1.7223038242627e-19 0.0049971978754941 1.7223038242627e-19 -0.027604347882959" pbc="T T T"
O        4.63453203       5.00000000       4.74565151     -20.51736273       0.00000000     -30.70856520
H        4.63453203       5.00000000       5.44565151      -1.20372816      -0.00000000      37.55060230
H        5.36546797       5.00000000       4.55434849      21.72109089       0.00000000      -6.84203710
3
Lattice="10.0 0.0 0.0 0.0 10.0 0.0 0.0 0.0 10.0" Properties=species:S:1:pos:R:3:forces:R:3 energy=-154.42624427844 free_energy=-154.42624427844 stress="-0.0098509768160851 -1.6630525732244e-19 0.0029870322133029 -1.6630525732244e-19 -0.00022701453232602 -8.7232966203611e-20 0.0029870322133029 -8.7232966203611e-20 -0.017869926898889" pbc="T T T"
O        4.60466263       5.00000000       4.71268588     -11.37627501      -0.00000000     -18.93683249
H        4.60466263       5.00000000       5.46824144      -0.99200405       0.00000000      22.72028092
H        5.39533737       5.00000000       4.53175856      12.36827906       0.00000000      -3.78344843
3
Lattice="10.0 0.0 0.0 0.0 10.0 0.0 0.0 0.0 10.0" Properties=species:S:1:pos:R:3:forces:R:3 energy=-155.32183980036 free_energy=-155.32183980036 stress="0.0061919074475801 -1.1279466333361e-19 -0.0018065123749341 -1.1279466333361e-19 -0.00020368354810314 -3.1319674003304e-19 -0.0018065123749341 -3.1319674003304e-19 -0.0099633638332083" pbc="T T T"
O        4.42324298       5.00000000       4.75982686       5.43957673      -0.00000000     -14.48848850
H        4.42324298       5.00000000       5.57093797       0.00440293       0.00000000      12.92371715
H        5.57675702       5.00000000       4.42906203      -5.44397967       0.00000000       1.56477135
3
Lattice="10.0 0.0 0.0 0.0 10.0 0.0 0.0 0.0 10.0" Properties=species:S:1:pos:R:3:forces:R:3 energy=-156.40362252559 free_energy=-156.40362252559 stress="-0.0052025625790597 -1.0466390648175e-19 0.0014813180477892 -1.0466390648175e-19 -0.000202996542716 -1.3973683482406e-19 0.0014813180477892 -1.3973683482406e-19 0.0040992804091696" pbc="T T T"
O        4.58253929       5.00000000       4.57176369      -6.10136659      -0.00000000       5.93685199
H        4.58253929       5.00000000       5.66065258      -0.04869610       0.00000000      -4.15703799
H        5.41746071       5.00000000       4.33934742       6.15006270       0.00000000      -1.77981400
3
Lattice="10.0 0.0 0.0 0.0 10.0 0.0 0.0 0.0 10.0" Properties=species:S:1:pos:R:3:forces:R:3 energy=-155.87614457356 free_energy=-155.87614457356 stress="-0.0098646940056442 -8.8980870248659e-20 0.0026810289681021 -8.8980870248659e-20 -0.00020624117389837 -1.7338406797802e-19 0.0026810289681021 -1.7338406797802e-19 0.0038174367210914" pbc="T T T"
O        4.60687467       5.00000000       4.55519381     -12.28243634       0.00000000       7.57149150
H        4.60687467       5.00000000       5.64408270      -0.18131312       0.00000000      -4.15497026
H        5.39312533       5.00000000       4.35591730      12.46374945       0.00000000      -3.41652124
3
Lattice="10.0 0.0 0.0 0.0 10.0 0.0 0.0 0.0 10.0" Properties=species:S:1:pos:R:3:forces:R:3 energy=-156.96067796869 free_energy=-156.96067796869 stress="0.00070233228801695 1.2265187795128e-19 -0.0002098190653621 1.2265187795128e-19 -0.00020147903112918 -4.7137820551016e-20 -0.0002098190653621 -4.7137820551016e-20 0.00089708881592227" pbc="T T T"
O        4.53004984       5.00000000       4.64586715       0.84914654       0.00000000       0.63891387
H        4.53004984       5.00000000       5.62364493      -0.01680434      -0.00000000      -0.85915877
H        5.46995016       5.00000000       4.37635507      -0.83234220      -0.00000000       0.22024489
3
Lattice="10.0 0.0 0.0 0.0 10.0 0.0 0.0 0.0 10.0" Properties=species:S:1:pos:R:3:forces:R:3 energy=-154.97197390433 free_energy=-154.97197390433 stress="-0.0050298393510991 -1.140112748146e-19 0.0018605272969943 -1.140112748146e-19 -0.0002225586790204 -1.2174522186941e-19 0.0018605272969943 -1.2174522186941e-19 -0.017624799401523" pbc="T T T"
O        4.58165043       5.00000000       4.73518864      -5.23431147      -0.00000000     -20.41810604
H        4.58165043       5.00000000       5.49074420      -0.69155267       0.00000000      22.64683703
H        5.41834957       5.00000000       4.50925580       5.92586414       0.00000000      -2.22873099
3
Lattice="10.0 0.0 0.0 0.0 10.0 0.0 0.0 0.0 10.0" Properties=species:S:1:pos:R:3:forces:R:3 energy=-156.69835576191 free_energy=-156.69835576191 stress="0.00078228970758117 1.0005795427212e-19 0.00010593841474641 1.0005795427212e-19 -0.00020680071155042 -2.3789741814876e-19 0.00010593841474641 -2.3789741814876e-19 -0.0055926325996267" pbc="T T T"
O        4.52428917       5.00000000       4.67941220       1.26736786      -0.00000000      -6.29157711
H        4.52428917       5.00000000       5.54607887      -0.35922088       0.00000000       6.40592781
H        5.47571083       5.00000000       4.45392113      -0.90814698      -0.00000000      -0.11435070
3
Lattice="10.0 0.0 0.0 0.0 10.0 0.0 0.0 0.0 10.0" Properties=species:S:1:pos:R:3:forces:R:3 energy=-152.70620105086 free_energy=-152.70620105086 stress="-0.024478954045663 -1.5204119370582e-19 0.0067613220471876 -1.5204119370582e-19 -0.00021160768095907 5.8436162753679e-20 0.0067613220471876 5.8436162753679e-20 0.0049499413852037" pbc="T T T"
O        4.66210227       5.00000000       4.49124211     -35.97362505      -0.00000000      15.68844905
H        4.66210227       5.00000000       5.69124211      -0.14219083      -0.00000000      -5.67599977
H        5.33789773       5.00000000       4.30875789      36.11581588       0.00000000     -10.01244928
3
Lattice="10.0 0.0 0.0 0.0 10.0 0.0 0.0 0.0 10.0" Properties=species:S:1:pos:R:3:forces:R:3 energy=-152.70857192956 free_energy=-152.70857192956 stress="-0.024267126011294 -1.0795252849801e-19 0.0070628963241126 -1.0795252849801e-19 -0.00021201239215851 6.1135099461059e-20 0.0070628963241126 6.1135099461059e-20 0.0047706750803099" pbc="T T T"
O        4.66355841       5.00000000       4.49647307     -35.85230164      -0.00000000      16.19427358
H        4.66355841       5.00000000       5.69647307      -0.10439511      -0.00000000      -5.69035391
H        5.33644159       5.00000000       4.30352693      35.95669674       0.00000000     -10.50391967
3
Lattice="10.0 0.0 0.0 0.0 10.0 0.0 0.0 0.0 10.0" Properties=species:S:1:pos:R:3:forces:R:3 energy=-155.57514646025 free_energy=-155.57514646025 stress="0.0061510768125116 -7.4981236991896e-20 -0.0017646981986956 -7.4981236991896e-20 -0.00018540811805801 -1.6519288499202e-19 -0.0017646981986956 -1.6519288499202e-19 0.006104419961834" pbc="T T T"
O        4.41838992       5.00000000       4.57518780       5.19513972       0.00000000       3.42276100
H        4.41838992       5.00000000       5.71963224       0.15960428       0.00000000      -4.93800720
H        5.58161008       5.00000000       4.28036776      -5.35474400       0.00000000       1.51524620
3
Lattice="10.0 0.0 0.0 0.0 10.0 0.0 0.0 0.0 10.0" Properties=species:S:1:pos:R:3:forces:R:3 energy=-155.61281949644 free_energy=-155.61281949644 stress="-0.010047873153177 -9.5203750386629e-20 0.002447828368935 -9.5203750386629e-20 -0.00020365106063159 -1.5185513499353e-19 0.002447828368935 -1.5185513499353e-19 0.0051654592316888" pbc="T T T"
O        4.60397280       5.00000000       4.51517211     -12.39046386      -0.00000000       8.11234655
H        4.60397280       5.00000000       5.65961655      -0.21373184       0.00000000      -5.01514503
H        5.39602720       5.00000000       4.34038345      12.60419570       0.00000000      -3.09720152
3
Lattice="10.0 0.0 0.0 0.0 10.0 0.0 0.0 0.0 10.0" Properties=species:S:1:pos:R:3:forces:R:3 energy=-153.29840211401 free_energy=-153.29840211401 stress="-0.0051952809664234 2.2691531432323e-20 0.0018966273228987 2.2691531432323e-20 -0.0002272610615845 6.706244348788e-20 0.0018966273228987 6.706244348788e-20 -0.0266979100685" pbc="T T T"
O        4.57684765       5.00000000       4.74338024      -4.95583210       0.00000000     -35.28363205
H        4.57684765       5.00000000       5.44338024      -1.09619937      -0.00000000      37.52956768
H        5.42315235       5.00000000       4.55661976       6.05203147      -0.00000000      -2.24593563
3
Lattice="10.0 0.0 0.0 0.0 10.0 0.0 0.0 0.0 10.0" Properties=species:S:1:pos:R:3:forces:R:3 energy=-156.66206061623 free_energy=-156.66206061623 stress="0.00063976475949945 1.9184267577862e-19 -0.00013685307586519 1.9184267577862e-19 -0.00019565804327107 -1.5743903531616e-19 -0.00013685307586519 -1.5743903531616e-19 0.0044684382833645" pbc="T T T"
O        4.52517805       5.00000000       4.57198776       0.79551741      -0.00000000       3.94065535
H        4.52517805       5.00000000       5.66087665      -0.03772064       0.00000000      -4.08183834
H        5.47482195       5.00000000       4.33912335      -0.75779677      -0.00000000       0.14118299
3
Lattice="10.0 0.0 0.0 0.0 10.0 0.0 0.0 0.0 10.0" Properties=species:S:1:pos:R:3:forces:R:3 energy=-156.12130481094 free_energy=-156.12130481094 stress="0.0053235451336111 -2.2478883087347e-20 -0.0011349073288542 -2.2478883087347e-20 -0.000187856904472 -1.037783640826e-19 -0.0011349073288542 -1.037783640826e-19 0.0046004245820503" pbc="T T T"
O        4.44028221       5.00000000       4.57452725       4.84162956      -0.00000000       2.99423990
H        4.44028221       5.00000000       5.66341613      -0.01456177      -0.00000000      -4.00606236
H        5.55971779       5.00000000       4.33658387      -4.82706779      -0.00000000       1.01182246
3
Lattice="10.0 0.0 0.0 0.0 10.0 0.0 0.0 0.0 10.0" Properties=species:S:1:pos:R:3:forces:R:3 energy=-155.92366350589 free_energy=-155.92366350589 stress="-0.0098339863529857 -8.8333651621704e-20 0.0028573911724537 -8.8333651621704e-20 -0.00021782733968193 1.1722574722165e-19 0.0028573911724537 1.1722574722165e-19 -0.0062208939071098" pbc="T T T"
O        4.60537625       5.00000000       4.66019421     -11.74791213       0.00000000      -2.73022438
H        4.60537625       5.00000000       5.52686088      -0.62556332      -0.00000000       6.35661610
H        5.39462375       5.00000000       4.47313912      12.37347545       0.00000000      -3.62639172
3
Lattice="10.0 0.0 0.0 0.0 10.0 0.0 0.0 0.0 10.0" Properties=species:S:1:pos:R:3:forces:R:3 energy=-156.14361823787 free_energy=-156.14361823787 stress="-0.0053445639924419 2.1407402989646e-19 0.001381320279948 2.1407402989646e-19 -0.00020010506163008 -1.7452891021098e-19 0.001381320279948 -1.7452891021098e-19 0.0053867876076424" pbc="T T T"
O        4.57834722       5.00000000       4.52771132      -6.14243954       0.00000000       6.65654231
H        4.57834722       5.00000000       5.67215577      -0.11464536      -0.00000000      -5.01298058
H        5.42165278       5.00000000       4.32784423       6.25708489      -0.00000000      -1.64356173
3
Lattice="10.0 0.0 0.0 0.0 10.0 0.0 0.0 0.0 10.0" Properties=species:S:1:pos:R:3:forces:R:3 energy=-153.4546536018 free_energy=-153.4546536018 stress="-0.016226104588579 -2.1025306566173e-19 0.0045443409671427 -2.1025306566173e-19 -0.00023214572990717 -1.6093980424058e-19 0.0045443409671427 -1.6093980424058e-19 -0.018254641947511" pbc="T T T"
O        4.63174053       5.00000000       4.70648974     -20.80211244      -0.00000000     -16.57616370
H        4.63174053       5.00000000       5.46204530      -1.12385978       0.00000000      22.75183177
H        5.36825947       5.00000000       4.53795470      21.92597222       0.00000000      -6.17566807
3
Lattice="10.0 0.0 0.0 0.0 10.0 0.0 0.0 0.0 10.0" Properties=species:S:1:pos:R:3:forces:R:3 energy=-151.82749897195 free_energy=-151.82749897195 stress="-0.024589301039381 -1.2886566715791e-19 0.0070794906001279 -1.2886566715791e-19 -0.00023731301433841 -1.5259558281746e-19 0.0070794906001279 -1.5259558281746e-19 -0.019017430556324" pbc="T T T"
O        4.66072745       5.00000000       4.70821140     -34.95664372      -0.00000000     -12.32379897
H        4.66072745       5.00000000       5.46376696      -1.15108785       0.00000000      22.76207120
H        5.33927255       5.00000000       4.53623304      36.10773157       0.00000000     -10.43827224
3
Lattice="10.0 0.0 0.0 0.0 10.0 0.0 0.0 0.0 10.0" Properties=species:S:1:pos:R:3:forces:R:3 energy=-151.85292949862 free_energy=-151.85292949862 stress="-0.024147253397201 -1.3011116131796e-19 0.0076635630142897 -1.3011116131796e-19 -0.00023706928084538 -1.3612239226682e-19 0.0076635630142897 -1.3612239226682e-19 -0.019371250948735" pbc="T T T"
O        4.66355841       5.00000000       4.71869530     -34.74072961      -0.00000000     -11.30754042
H        4.66355841       5.00000000       5.47425085      -1.01274953       0.00000000      22.70150696
H        5.33644159       5.00000000       4.52574915      35.75347914       0.00000000     -11.39396654
3
Lattice="10.0 0.0 0.0 0.0 10.0 0.0 0.0 0.0 10.0" Properties=species:S:1:pos:R:3:forces:R:3 energy=-156.00925292902 free_energy=-156.00925292902 stress="0.0060694206852691 -1.7187351248502e-20 -0.0019829192146444 -1.7187351248502e-20 -0.00019083182056545 -7.906238177696e-20 -0.0019829192146444 -7.906238177696e-20 0.0033764658158565" pbc="T T T"
O        4.42324298       5.00000000       4.64871575       5.12193090       0.00000000       0.99621358
H        4.42324298       5.00000000       5.68204908       0.20953572       0.00000000      -2.71366030
H        5.57675702       5.00000000       4.31795092      -5.33146661       0.00000000       1.71744672
3
Lattice="10.0 0.0 0.0 0.0 10.0 0.0 0.0 0.0 10.0" Properties=species:S:1:pos:R:3:forces:R:3 energy=-153.33997324017 free_energy=-153.33997324017 stress="-0.024147489843161 -1.4845676890558e-19 0.0074609009060692 -1.4845676890558e-19 -0.0002273305365568 1.3469692863134e-19 0.0074609009060692 1.3469692863134e-19 -0.0076283595816714" pbc="T T T"
O        4.66355841       5.00000000       4.66313974     -35.11710093      -0.00000000       4.80448719
H        4.66355841       5.00000000       5.52980641      -0.64590921      -0.00000000       6.28889183
H        5.33644159       5.00000000       4.47019359      35.76301015       0.00000000     -11.09337902
3
Lattice="10.0 0.0 0.0 0.0 10.0 0.0 0.0 0.0 10.0" Properties=species:S:1:pos:R:3:forces:R:3 energy=-153.29232420805 free_energy=-153.29232420805 stress="-0.0052245066201371 1.6540128402088e-20 0.001888486216969 1.6540128402088e-20 -0.00022729041516786 6.4358896387175e-20 0.001888486216969 6.4358896387175e-20 -0.026690701153003" pbc="T T T"
O        4.57613604       5.00000000       4.74009507      -4.94118987       0.00000000     -35.30854387
H        4.57613604       5.00000000       5.44009507      -1.13507908      -0.00000000      37.54110643
H        5.42386396       5.00000000       4.55990493       6.07626895       0.00000000      -2.23256256
3
Lattice="10.0 0.0 0.0 0.0 10.0 0.0 0.0 0.0 10.0" Properties=species:S:1:pos:R:3:forces:R:3 energy=-153.00722062783 free_energy=-153.00722062783 stress="0.005372665014465 5.9829325327867e-20 -0.0013191815216507 5.9829325327867e-20 -0.00021317401782854 7.3265390541386e-20 -0.0013191815216507 7.3265390541386e-20 -0.025852070794372" pbc="T T T"
O        4.44873778       5.00000000       4.80345433       5.25163919       0.00000000     -38.65683441
H        4.44873778       5.00000000       5.50345433      -0.29282976      -0.00000000      37.46155830
H        5.55126222       5.00000000       4.49654567      -4.95880943      -0.00000000       1.19527611
3
Lattice="10.0 0.0 0.0 0.0 10.0 0.0 0.0 0.0 10.0" Properties=species:S:1:pos:R:3:forces:R:3 energy=-154.65025065504 free_energy=-154.65025065504 stress="0.005343890523791 1.2774170877182e-19 -0.0013786758618105 1.2774170877182e-19 -0.00020903758502473 -2.3702222603936e-19 -0.0013786758618105 -2.3702222603936e-19 -0.016764507788471" pbc="T T T"
O        4.44873778       5.00000000       4.77567655       5.11144662       0.00000000     -23.94673793
H        4.44873778       5.00000000       5.53123211      -0.18086621       0.00000000      22.69759328
H        5.55126222       5.00000000       4.46876789      -4.93058041      -0.00000000       1.24914466
3
Lattice="10.0 0.0 0.0 0.0 10.0 0.0 0.0 0.0 10.0" Properties=species:S:1:pos:R:3:forces:R:3 energy=-156.55974199815 free_energy=-156.55974199815 stress="0.0025173854074836 9.5434618280144e-20 -0.00084280892250286 9.5434618280144e-20 -0.00019406022528355 -1.5652179659655e-19 -0.00084280892250286 -1.5652179659655e-19 0.0046851736468971" pbc="T T T"
O        4.50225838       5.00000000       4.59411141       2.50678997      -0.00000000       3.24132209
H        4.50225838       5.00000000       5.68300029       0.10658166       0.00000000      -4.08595560
H        5.49774162       5.00000000       4.31699971      -2.61337164      -0.00000000       0.84463350
3
Lattice="10.0 0.0 0.0 0.0 10.0 0.0 0.0 0.0 10.0" Properties=species:S:1:pos:R:3:forces:R:3 energy=-156.30963714607 free_energy=-156.30963714607 stress="0.0025463177437631 -1.3380800034007e-20 -0.00064930991325957 -1.3380800034007e-20 -0.00019089088532559 -1.183470770486e-19 -0.00064930991325957 -1.183470770486e-19 0.0058256520556487" pbc="T T T"
O        4.49726015       5.00000000       4.54692931       2.59412053      -0.00000000       4.31686042
H        4.49726015       5.00000000       5.69137376       0.02108313       0.00000000      -4.96050956
H        5.50273985       5.00000000       4.30862624      -2.61520366      -0.00000000       0.64364915
3
Lattice="10.0 0.0 0.0 0.0 10.0 0.0 0.0 0.0 10.0" Properties=species:S:1:pos:R:3:forces:R:3 energy=-156.9335963515 free_energy=-156.9335963515 stress="0.00074420254447856 1.3843037493544e-19 -0.00015734949698038 1.3843037493544e-19 -0.00020439160177198 -2.3846011044231e-20 -0.00015734949698038 -2.3846011044231e-20 -0.0018273898955608" pbc="T T T"
O        4.53004984       5.00000000       4.67364493       0.96505090       0.00000000      -2.19055784
H        4.53004984       5.00000000       5.59586715      -0.08769626      -0.00000000       2.02616030
H        5.46995016       5.00000000       4.40413285      -0.87735463      -0.00000000       0.16439754
3
Lattice="10.0 0.0 0.0 0.0 10.0 0.0 0.0 0.0 10.0" Properties=species:S:1:pos:R:3:forces:R:3 energy=-155.1971014978 free_energy=-155.1971014978 stress="-0.015837006327059 -1.110401376272e-19 0.0047986682793356 -1.110401376272e-19 -0.00021887917335917 1.500344553931e-19 0.0047986682793356 1.500344553931e-19 -0.0031692709763628" pbc="T T T"
O        4.63605989       5.00000000       4.64019854     -21.21570151      -0.00000000       4.64658861
H        4.63605989       5.00000000       5.56242076      -0.44410631      -0.00000000       1.95242210
H        5.36394011       5.00000000       4.43757924      21.65980782       0.00000000      -6.59901071
3
Lattice="10.0 0.0 0.0 0.0 10.0 0.0 0.0 0.0 10.0" Properties=species:S:1:pos:R:3:forces:R:3 energy=-155.62192588738 free_energy=-155.62192588738 stress="-0.0097235247384339 -1.6182203269028e-19 0.0028097671518715 -1.6182203269028e-19 -0.00020526508862208 -8.1075891346451e-20 0.0028097671518715 -8.1075891346451e-20 0.0049825854599555" pbc="T T T"
O        4.61015498       5.00000000       4.53956404     -12.35133990      -0.00000000       8.68486107
H        4.61015498       5.00000000       5.68400848      -0.03598183       0.00000000      -5.07433757
H        5.38984502       5.00000000       4.31599152      12.38732173       0.00000000      -3.61052350
3
Lattice="10.0 0.0 0.0 0.0 10.0 0.0 0.0 0.0 10.0" Properties=species:S:1:pos:R:3:forces:R:3 energy=-156.11397106577 free_energy=-156.11397106577 stress="0.0039378352728081 2.1926752335737e-20 -0.0013793334077656 2.1926752335737e-20 -0.00019023743167835 -5.7449404624745e-20 -0.0013793334077656 -5.7449404624745e-20 0.0060956211258619" pbc="T T T"
O        4.47664641       5.00000000       4.57784700       3.64589398       0.00000000       3.65988999
H        4.47664641       5.00000000       5.72229145       0.19516298       0.00000000      -4.97586857
H        5.52335359       5.00000000       4.27770855      -3.84105695      -0.00000000       1.31597858
3
Lattice="10.0 0.0 0.0 0.0 10.0 0.0 0.0 0.0 10.0" Properties=species:S:1:pos:R:3:forces:R:3 energy=-153.25776721206 free_energy=-153.25776721206 stress="0.0042770938950544 5.4884431003409e-20 -0.0007118697488415 5.4884431003409e-20 -0.00021443013615931 3.0626766425852e-20 -0.0007118697488415 3.0626766425852e-20 -0.026062406098594" pbc="T T T"
O        4.47122101       5.00000000       4.77966314       4.65353799       0.00000000     -38.16103665
H        4.47122101       5.00000000       5.47966314      -0.51837559      -0.00000000      37.48934383
H        5.52877899       5.00000000       4.52033686      -4.13516240      -0.00000000       0.67169281
3
Lattice="10.0 0.0 0.0 0.0 10.0 0.0 0.0 0.0 10.0" Properties=species:S:1:pos:R:3:forces:R:3 energy=-156.40768933329 free_energy=-156.40768933329 stress="0.0053520823725562 9.0074850225852e-20 -0.0011242129653948 9.0074850225852e-20 -0.00019306794791405 -6.4224058404543e-20 -0.0011242129653948 -6.4224058404543e-20 0.00095668999483857" pbc="T T T"
O        4.44122190       5.00000000       4.63442092       4.94219421      -0.00000000      -0.27633949
H        4.44122190       5.00000000       5.61219870      -0.07895251      -0.00000000      -0.72777200
H        5.55877810       5.00000000       4.38780130      -4.86324169      -0.00000000       1.00411149
3
Lattice="10.0 0.0 0.0 0.0 10.0 0.0 0.0 0.0 10.0" Properties=species:S:1:pos:R:3:forces:R:3 energy=-156.30467843306 free_energy=-156.30467843306 stress="0.0051492488372666 3.6880115231029e-20 -0.0016858916859127 3.6880115231029e-20 -0.00019246047734172 -1.1640399069388e-19 -0.0016858916859127 -1.1640399069388e-19 0.0033080695315167" pbc="T T T"
O        4.44994470       5.00000000       4.64105915       4.57887358       0.00000000       1.19874408
H        4.44994470       5.00000000       5.67439249       0.17689316       0.00000000      -2.72958558
H        5.55005530       5.00000000       4.32560751      -4.75576673      -0.00000000       1.53084150
3
Lattice="10.0 0.0 0.0 0.0 10.0 0.0 0.0 0.0 10.0" Properties=species:S:1:pos:R:3:forces:R:3 energy=-156.01532656734 free_energy=-156.01532656734 stress="0.0025149213497941 -3.3132191450763e-20 -0.00072625541337711 -3.3132191450763e-20 -0.0001894800008423 1.7239989571111e-20 -0.00072625541337711 1.7239989571111e-20 0.0068659836837624" pbc="T T T"
O        4.49819953       5.00000000       4.52304767       2.51603757       0.00000000       4.85371681
H        4.49819953       5.00000000       5.72304767       0.07242636      -0.00000000      -5.57524896
H        5.50180047       5.00000000       4.27695233      -2.58846393      -0.00000000       0.72153215
3
Lattice="10.0 0.0 0.0 0.0 10.0 0.0 0.0 0.0 10.0" Properties=species:S:1:pos:R:3:forces:R:3 energy=-154.46205606779 free_energy=-154.46205606779 stress="-0.0095191679619625 -2.0744590429077e-19 0.0032728843694444 -2.0744590429077e-19 -0.00022703131489412 -1.2809263867153e-19 0.0032728843694444 -1.2809263867153e-19 -0.018050093458156" pbc="T T T"
O        4.61015498       5.00000000       4.73400848     -11.36923792      -0.00000000     -18.42657348
H        4.61015498       5.00000000       5.48956404      -0.74730733       0.00000000      22.62988957
H        5.38984502       5.00000000       4.51043596      12.11654525       0.00000000      -4.20331610
3
Lattice="10.0 0.0 0.0 0.0 10.0 0.0 0.0 0.0 10.0" Properties=species:S:1:pos:R:3:forces:R:3 energy=-154.94381334944 free_energy=-154.94381334944 stress="-0.0051989691992786 6.5858794417469e-20 0.0018134640076284 6.5858794417469e-20 -0.00022238812113592 -1.4825464083838e-19 0.0018134640076284 -1.4825464083838e-19 -0.017582618903118" pbc="T T T"
O        4.57684765       5.00000000       4.71560247      -5.15484346      -0.00000000     -20.57088837
H        4.57684765       5.00000000       5.47115802      -0.90325333       0.00000000      22.71871039
H        5.42315235       5.00000000       4.52884198       6.05809679      -0.00000000      -2.14782202
3
Lattice="10.0 0.0 0.0 0.0 10.0 0.0 0.0 0.0 10.0" Properties=species:S:1:pos:R:3:forces:R:3 energy=-156.11405179227 free_energy=-156.11405179227 stress="0.00058976622314424 1.7162815233348e-19 -0.00017784838867891 1.7162815233348e-19 -0.00019190311117724 -4.1726181464542e-20 -0.00017784838867891 -4.1726181464542e-20 0.0067321029476042" pbc="T T T"
O        4.52428917       5.00000000       4.51274554       0.68964484       0.00000000       5.39868414
H        4.52428917       5.00000000       5.71274554       0.01451546      -0.00000000      -5.58275905
H        5.47571083       5.00000000       4.28725446      -0.70416029      -0.00000000       0.18407491
3
Lattice="10.0 0.0 0.0 0.0 10.0 0.0 0.0 0.0 10.0" Properties=species:S:1:pos:R:3:forces:R:3 energy=-156.85552165836 free_energy=-156.85552165836 stress="0.00066233083085096 1.0164142940544e-19 -0.00025618252520419 1.0164142940544e-19 -0.00019899504171456 -1.7909827915695e-19 -0.00025618252520419 -1.7909827915695e-19 0.002964266509884" pbc="T T T"
O        4.53004984       5.00000000       4.61808937       0.74963365       0.00000000       2.53019611
H        4.53004984       5.00000000       5.65142271       0.03996148       0.00000000      -2.79980210
H        5.46995016       5.00000000       4.34857729      -0.78959513      -0.00000000       0.26960598
3
Lattice="10.0 0.0 0.0 0.0 10.0 0.0 0.0 0.0 10.0" Properties=species:S:1:pos:R:3:forces:R:3 energy=-156.13927036944 free_energy=-156.13927036944 stress="0.005422957525296 1.593217848023e-20 -0.00095912967615992 1.593217848023e-20 -0.00019947357365526 1.1478467254845e-20 -0.00095912967615992 1.1478467254845e-20 -0.0054314483024346" pbc="T T T"
O        4.44028221       5.00000000       4.68563836       5.16800989       0.00000000      -7.34988464
H        4.44028221       5.00000000       5.55230502      -0.24630691      -0.00000000       6.49483562
H        5.55971779       5.00000000       4.44769498      -4.92170298      -0.00000000       0.85504902
3
Lattice="10.0 0.0 0.0 0.0 10.0 0.0 0.0 0.0 10.0" Properties=species:S:1:pos:R:3:forces:R:3 energy=-155.94522994748 free_energy=-155.94522994748 stress="-0.0049982056072709 9.8300382160117e-20 0.0017964678117091 9.8300382160117e-20 -0.0002182636977787 -1.9081120598496e-19 0.0017964678117091 -1.9081120598496e-19 -0.0109200031171" pbc="T T T"
O        4.58345327       5.00000000       4.71388730      -5.44185277      -0.00000000     -10.64591913
H        4.58345327       5.00000000       5.52499841      -0.47336391       0.00000000      12.80753681
H        5.41654673       5.00000000       4.47500159       5.91521668      -0.00000000      -2.16161768
3
Lattice="10.0 0.0 0.0 0.0 10.0 0.0 0.0 0.0 10.0" Properties=species:S:1:pos:R:3:forces:R:3 energy=-156.11337019342 free_energy=-156.11337019342 stress="0.0063244240685505 -2.6312839977664e-20 -0.0013007233922828 -2.6312839977664e-20 -0.00019117007910174 -4.8485943992203e-21 -0.0013007233922828 -4.8485943992203e-21 0.00096697632273418" pbc="T T T"
O        4.41311144       5.00000000       4.63585813       5.52119942      -0.00000000      -0.39900341
H        4.41311144       5.00000000       5.61363590      -0.06443928      -0.00000000      -0.70731020
H        5.58688856       5.00000000       4.38636410      -5.45676014       0.00000000       1.10631361
3
Lattice="10.0 0.0 0.0 0.0 10.0 0.0 0.0 0.0 10.0" Properties=species:S:1:pos:R:3:forces:R:3 energy=-156.37324181838 free_energy=-156.37324181838 stress="-0.0019487500390529 -1.424867121367e-19 0.00054132865690208 -1.424867121367e-19 -0.00019617488534569 -8.7435607128694e-20 0.00054132865690208 -8.7435607128694e-20 0.0055612986986087" pbc="T T T"
O        4.54972250       5.00000000       4.52714393      -1.97001917      -0.00000000       5.58682123
H        4.54972250       5.00000000       5.67158838      -0.11199805       0.00000000      -4.98154602
H        5.45027750       5.00000000       4.32841162       2.08201722       0.00000000      -0.60527521
3
Lattice="10.0 0.0 0.0 0.0 10.0 0.0 0.0 0.0 10.0" Properties=species:S:1:pos:R:3:forces:R:3 energy=-153.48509608886 free_energy=-153.48509608886 stress="-0.015868800944216 -1.3429780659475e-19 0.0049788540973934 -1.3429780659475e-19 -0.00023193236771112 -1.3258934410061e-19 0.0049788540973934 -1.3258934410061e-19 -0.0185010686634" pbc="T T T"
O        4.63528499       5.00000000       4.72070577     -20.70195457      -0.00000000     -15.85070174
H        4.63528499       5.00000000       5.47626132      -0.94644520       0.00000000      22.68196926
H        5.36471501       5.00000000       4.52373868      21.64839976       0.00000000      -6.83126753
3
Lattice="10.0 0.0 0.0 0.0 10.0 0.0 0.0 0.0 10.0" Properties=species:S:1:pos:R:3:forces:R:3 energy=-152.76675878429 free_energy=-152.76675878429 stress="-0.025068062165296 -1.5589826379348e-19 0.0062085856746866 -1.5589826379348e-19 -0.00023225482182779 -2.0573402965086e-19 0.0062085856746866 -2.0573402965086e-19 -0.011876773714271" pbc="T T T"
O        4.65764834       5.00000000       4.66721354     -35.38111768      -0.00000000      -3.89118497
H        4.65764834       5.00000000       5.47832465      -1.10687555       0.00000000      12.96407293
H        5.34235166       5.00000000       4.52167535      36.48799323       0.00000000      -9.07288796
3
Lattice="10.0 0.0 0.0 0.0 10.0 0.0 0.0 0.0 10.0" Properties=species:S:1:pos:R:3:forces:R:3 energy=-156.59141301794 free_energy=-156.59141301794 stress="-0.0053073802910593 -2.3798933085676e-19 0.0014703253263378 -2.3798933085676e-19 -0.00020403088430006 -1.5012555699838e-20 0.0014703253263378 -1.5012555699838e-20 0.0025218346785825" pbc="T T T"
O        4.57758473       5.00000000       4.57999314      -5.93956175      -0.00000000       4.53834055
H        4.57758473       5.00000000       5.61332647      -0.26255113      -0.00000000      -2.79248037
H        5.42241527       5.00000000       4.38667353       6.20211288       0.00000000      -1.74586018
3
Lattice="10.0 0.0 0.0 0.0 10.0 0.0 0.0 0.0 10.0" Properties=species:S:1:pos:R:3:forces:R:3 energy=-155.38601042286 free_energy=-155.38601042286 stress="-0.009944731577393 -8.8922206200104e-20 0.0028124682378412 -8.8922206200104e-20 -0.00022215112525415 -2.1694193193725e-19 0.0028124682378412 -2.1694193193725e-19 -0.011105417541071" pbc="T T T"
O        4.60330681       5.00000000       4.67876419     -11.56738960      -0.00000000      -9.36404088
H        4.60330681       5.00000000       5.48987530      -0.87919261       0.00000000      12.91473855
H        5.39669319       5.00000000       4.51012470      12.44658221       0.00000000      -3.55069767
3
Lattice="10.0 0.0 0.0 0.0 10.0 0.0 0.0 0.0 10.0" Properties=species:S:1:pos:R:3:forces:R:3 energy=-154.89146328201 free_energy=-154.89146328201 stress="0.0042882708088992 -1.9144224102892e-20 -0.00053473385453527 -1.9144224102892e-20 -0.00020962653463187 -1.9768831396319e-19 -0.00053473385453527 -1.9768831396319e-19 -0.01708672739797" pbc="T T T"
O        4.46745297       5.00000000       4.73541859       4.64084137      -0.00000000     -23.25818401
H        4.46745297       5.00000000       5.49097414      -0.52679618       0.00000000      22.75776661
H        5.53254703       5.00000000       4.50902586      -4.11404519      -0.00000000       0.50041741
3
Lattice="10.0 0.0 0.0 0.0 10.0 0.0 0.0 0.0 10.0" Properties=species:S:1:pos:R:3:forces:R:3 energy=-155.84405814601 free_energy=-155.84405814601 stress="0.0063700598177051 2.9414475827953e-20 -0.001209447138756 2.9414475827953e-20 -0.0001978208848662 -2.2802679636546e-19 -0.001209447138756 -2.2802679636546e-19 -0.0053870876812102" pbc="T T T"
O        4.41311144       5.00000000       4.69141368       5.68864218      -0.00000000      -7.53810646
H        4.41311144       5.00000000       5.55808035      -0.18976045       0.00000000       6.50942706
H        5.58688856       5.00000000       4.44191965      -5.49888174      -0.00000000       1.02867940
3
Lattice="10.0 0.0 0.0 0.0 10.0 0.0 0.0 0.0 10.0" Properties=species:S:1:pos:R:3:forces:R:3 energy=-151.79875005546 free_energy=-151.79875005546 stress="-0.024993769218051 -1.5914569478609e-19 0.0064751617395706 -1.5914569478609e-19 -0.00023767536477124 -1.6369665674855e-19 0.0064751617395706 -1.6369665674855e-19 -0.018704555980573" pbc="T T T"
O        4.65822311       5.00000000       4.69764473     -35.13987572      -0.00000000     -13.34567928
H        4.65822311       5.00000000       5.45320028      -1.29582853       0.00000000      22.82349892
H        5.34177689       5.00000000       4.54679972      36.43570425       0.00000000      -9.47781963
3
Lattice="10.0 0.0 0.0 0.0 10.0 0.0 0.0 0.0 10.0" Properties=species:S:1:pos:R:3:forces:R:3 energy=-156.11556328125 free_energy=-156.11556328125 stress="0.0051483719773757 2.1047338375532e-20 -0.0016564212549806 2.1047338375532e-20 -0.00018993813564045 -1.3361387923284e-19 -0.0016564212549806 -1.3361387923284e-19 0.00487481336585" pbc="T T T"
O        4.44873778       5.00000000       4.60900988       4.56190873      -0.00000000       2.54817986
H        4.44873778       5.00000000       5.69789877       0.18144051       0.00000000      -4.04884480
H        5.55126222       5.00000000       4.30210123      -4.74334924      -0.00000000       1.50066494
3
Lattice="10.0 0.0 0.0 0.0 10.0 0.0 0.0 0.0 10.0" Properties=species:S:1:pos:R:3:forces:R:3 energy=-156.01441299498 free_energy=-156.01441299498 stress="0.006185592672398 -8.2195787267655e-21 -0.0017043293196298 -8.2195787267655e-21 -0.00018971704909445 -1.2097967106253e-19 -0.0017043293196298 -1.2097967106253e-19 0.0032167639027203" pbc="T T T"
O        4.41838992       5.00000000       4.63074335       5.27658605      -0.00000000       1.22741116
H        4.41838992       5.00000000       5.66407669       0.10969560       0.00000000      -2.69087246
H        5.58161008       5.00000000       4.33592331      -5.38628165       0.00000000       1.46346130
3
Lattice="10.0 0.0 0.0 0.0 10.0 0.0 0.0 0.0 10.0" Properties=species:S:1:pos:R:3:forces:R:3 energy=-155.31740412738 free_energy=-155.31740412738 stress="0.0063572323641058 -3.7141096116196e-20 -0.0013068498913864 -3.7141096116196e-20 -0.00020214839015203 -2.3040283035876e-19 -0.0013068498913864 -2.3040283035876e-19 -0.010232985110517" pbc="T T T"
O        4.41511732       5.00000000       4.72828109       5.71834070      -0.00000000     -14.09958015
H        4.41511732       5.00000000       5.53939220      -0.20941443       0.00000000      12.98395852
H        5.58488268       5.00000000       4.46060780      -5.50892627       0.00000000       1.11562162
3
Lattice="10.0 0.0 0.0 0.0 10.0 0.0 0.0 0.0 10.0" Properties=species:S:1:pos:R:3:forces:R:3 energy=-152.81598309466 free_energy=-152.81598309466 stress="-0.024253473211092 -1.5628162773119e-19 0.0074125997092657 -1.5628162773119e-19 -0.00023191841894382 -2.1879550259419e-19 0.0074125997092657 -2.1879550259419e-19 -0.012516833650463" pbc="T T T"
O        4.66282019       5.00000000       4.68830486     -34.99378009      -0.00000000      -1.85066743
H        4.66282019       5.00000000       5.49941597      -0.84404663       0.00000000      12.84787278
H        5.33717981       5.00000000       4.50058403      35.83782672       0.00000000     -10.99720535
3
Lattice="10.0 0.0 0.0 0.0 10.0 0.0 0.0 0.0 10.0" Properties=species:S:1:pos:R:3:forces:R:3 energy=-156.63091941334 free_energy=-156.63091941334 stress="0.0040693095643153 -6.6019584609088e-20 -0.0012283527952812 -6.6019584609088e-20 -0.00019979529812863 -1.7033277025582e-20 -0.0012283527952812 -1.7033277025582e-20 -0.001563081646803" pbc="T T T"
O        4.47664641       5.00000000       4.68895812       3.93486104       0.00000000      -3.25148954
H        4.47664641       5.00000000       5.61118034       0.03672577      -0.00000000       2.07951462
H        5.52335359       5.00000000       4.38881966      -3.97158682       0.00000000       1.17197492
3
Lattice="10.0 0.0 0.0 0.0 10.0 0.0 0.0 0.0 10.0" Properties=species:S:1:pos:R:3:forces:R:3 energy=-155.10462024837 free_energy=-155.10462024837 stress="0.0027600042641012 3.7967851512656e-20 -0.00043782553086322 3.7967851512656e-20 -0.00021270849872469 -2.3911040074e-19 -0.00043782553086322 -2.3911040074e-19 -0.01702829293801" pbc="T T T"
O        4.50016880       5.00000000       4.75303973       3.26199623      -0.00000000     -23.12129968
H        4.50016880       5.00000000       5.50859528      -0.41019458       0.00000000      22.68531703
H        5.49983120       5.00000000       4.49140472      -2.85180165      -0.00000000       0.43598265
3
Lattice="10.0 0.0 0.0 0.0 10.0 0.0 0.0 0.0 10.0" Properties=species:S:1:pos:R:3:forces:R:3 energy=-156.07956651842 free_energy=-156.07956651842 stress="-0.0019415650421908 -1.5799267905261e-19 0.00045045313567454 -1.5799267905261e-19 -0.00019547149626205 5.9570784985395e-20 0.00045045313567454 5.9570784985395e-20 0.0066036016108647" pbc="T T T"
O        4.55302188       5.00000000       4.51328733      -2.10643351      -0.00000000       6.11578932
H        4.55302188       5.00000000       5.71328733       0.01775571      -0.00000000      -5.60775954
H        5.44697812       5.00000000       4.28671267       2.08867780       0.00000000      -0.50802978
3
Lattice="10.0 0.0 0.0 0.0 10.0 0.0 0.0 0.0 10.0" Properties=species:S:1:pos:R:3:forces:R:3 energy=-153.33550201259 free_energy=-153.33550201259 stress="-0.024258757790506 -7.6938139847278e-20 0.0073155077502098 -7.6938139847278e-20 -0.00022730015200579 1.4968459993773e-19 0.0073155077502098 1.4968459993773e-19 -0.0075381212475772" pbc="T T T"
O        4.66282019       5.00000000       4.66052708     -35.17519970       0.00000000       4.55130073
H        4.66282019       5.00000000       5.52719375      -0.67482875      -0.00000000       6.30222575
H        5.33717981       5.00000000       4.47280625      35.85002845       0.00000000     -10.85352648
3
Lattice="10.0 0.0 0.0 0.0 10.0 0.0 0.0 0.0 10.0" Properties=species:S:1:pos:R:3:forces:R:3 energy=-155.10000461369 free_energy=-155.10000461369 stress="-0.016164201221561 -8.4918443886929e-20 0.0043063295798369 -8.4918443886929e-20 -0.00021252684803514 -4.0496013600684e-20 0.0043063295798369 -4.0496013600684e-20 0.001850337769792" pbc="T T T"
O        4.63309213       5.00000000       4.57330367     -21.58793622      -0.00000000       8.72413821
H        4.63309213       5.00000000       5.60663701      -0.34716949       0.00000000      -2.84887196
H        5.36690787       5.00000000       4.39336299      21.93510571       0.00000000      -5.87526626
3
Lattice="10.0 0.0 0.0 0.0 10.0 0.0 0.0 0.0 10.0" Properties=species:S:1:pos:R:3:forces:R:3 energy=-156.40689330741 free_energy=-156.40689330741 stress="0.0005978656257067 1.4184677789083e-19 -0.00030102279472102 1.4184677789083e-19 -0.0001947950774864 -1.3992763564285e-19 -0.00030102279472102 -1.3992763564285e-19 0.0058112393310315" pbc="T T T"
O        4.52901868       5.00000000       4.55888439       0.62357655       0.00000000       4.68949437
H        4.52901868       5.00000000       5.70332883       0.09613102      -0.00000000      -5.00619719
H        5.47098132       5.00000000       4.29667117      -0.71970757      -0.00000000       0.31670281
3
Lattice="10.0 0.0 0.0 0.0 10.0 0.0 0.0 0.0 10.0" Properties=species:S:1:pos:R:3:forces:R:3 energy=-156.4010749814 free_energy=-156.4010749814 stress="0.0041726219302913 -1.0460940784741e-19 -0.00094846508915093 -1.0460940784741e-19 -0.00020231588126771 -2.47255169834e-19 -0.00094846508915093 -2.47255169834e-19 -0.0053363968505677" pbc="T T T"
O        4.47224270       5.00000000       4.70042761       4.19192199      -0.00000000      -7.32934131
H        4.47224270       5.00000000       5.56709428      -0.15420188       0.00000000       6.43238839
H        5.52775730       5.00000000       4.43290572      -4.03772012       0.00000000       0.89695292
3
Lattice="10.0 0.0 0.0 0.0 10.0 0.0 0.0 0.0 10.0" Properties=species:S:1:pos:R:3:forces:R:3 energy=-155.61947298507 free_energy=-155.61947298507 stress="0.0053517646226608 3.9404183203193e-20 -0.0013074897473505 3.9404183203193e-20 -0.00020453324574431 -2.0992571652083e-19 -0.0013074897473505 -2.0992571652083e-19 -0.010147548690677" pbc="T T T"
O        4.44642351       5.00000000       4.73932835       5.06118752       0.00000000     -14.11321049
H        4.44642351       5.00000000       5.55043946      -0.14650349       0.00000000      12.93373792
H        5.55357649       5.00000000       4.44956054      -4.91468403      -0.00000000       1.17947256
3
Lattice="10.0 0.0 0.0 0.0 10.0 0.0 0.0 0.0 10.0" Properties=species:S:1:pos:R:3:forces:R:3 energy=-155.10971505699 free_energy=-155.10971505699 stress="-0.015891472091292 -1.6821022548005e-19 0.0046619920400628 -1.6821022548005e-19 -0.00021308870344398 -1.9559542776903e-21 0.0046619920400628 -1.9559542776903e-21 0.0016556222916764" pbc="T T T"
O        4.63605989       5.00000000       4.58464299     -21.48955702      -0.00000000       9.29942722
H        4.63605989       5.00000000       5.61797632      -0.24895859      -0.00000000      -2.88767881
H        5.36394011       5.00000000       4.38202368      21.73851561       0.00000000      -6.41174841
3
Lattice="10.0 0.0 0.0 0.0 10.0 0.0 0.0 0.0 10.0" Properties=species:S:1:pos:R:3:forces:R:3 energy=-153.4794218875 free_energy=-153.4794218875 stress="-0.015943014970557 -1.3468821242032e-19 0.0048934510201582 -1.3468821242032e-19 -0.0002319602900418 -2.0836331516812e-19 0.0048934510201582 -2.0836331516812e-19 -0.018448710848969" pbc="T T T"
O        4.63453203       5.00000000       4.71787373     -20.72436445      -0.00000000     -15.99553543
H        4.63453203       5.00000000       5.47342929      -0.98115777       0.00000000      22.69591094
H        5.36546797       5.00000000       4.52657071      21.70552222       0.00000000      -6.70037552
3
Lattice="10.0 0.0 0.0 0.0 10.0 0.0 0.0 0.0 10.0" Properties=species:S:1:pos:R:3:forces:R:3 energy=-152.79896979634 free_energy=-152.79896979634 stress="-0.009714462647441 -1.2832934921496e-19 0.0032042092618543 -1.2832934921496e-19 -0.00023197713702385 5.0534186386942e-20 0.0032042092618543 5.0534186386942e-20 -0.027078408893086" pbc="T T T"
O        4.60687467       5.00000000       4.74963825     -11.17348466       0.00000000     -33.43151383
H        4.60687467       5.00000000       5.44963825      -1.08818472      -0.00000000      37.51222537
H        5.39312533       5.00000000       4.55036175      12.26166938       0.00000000      -4.08071154
3
Lattice="10.0 0.0 0.0 0.0 10.0 0.0 0.0 0.0 10.0" Properties=species:S:1:pos:R:3:forces:R:3 energy=-156.14632793651 free_energy=-156.14632793651 stress="-0.0052339916386359 -1.3045773186646e-19 0.0014385401617321 -1.3045773186646e-19 -0.00020121723361504 -1.1547401384978e-19 0.0014385401617321 -1.1547401384978e-19 0.005362131017266" pbc="T T T"
O        4.58253929       5.00000000       4.54398591      -6.18580739      -0.00000000       6.77592021
H        4.58253929       5.00000000       5.68843035      -0.00153446       0.00000000      -5.04730449
H        5.41746071       5.00000000       4.31156965       6.18734185       0.00000000      -1.72861573
3
Lattice="10.0 0.0 0.0 0.0 10.0 0.0 0.0 0.0 10.0" Properties=species:S:1:pos:R:3:forces:R:3 energy=-154.95403213135 free_energy=-154.95403213135 stress="-0.0051431619879669 1.2999441889586e-19 0.0018294833622595 1.2999441889586e-19 -0.00022241582622041 -2.2341392834641e-19 0.0018294833622595 -2.2341392834641e-19 -0.017595916223809" pbc="T T T"
O        4.57834722       5.00000000       4.72215577      -5.18230343      -0.00000000     -20.52047943
H        4.57834722       5.00000000       5.47771132      -0.83128730       0.00000000      22.69493471
H        5.42165278       5.00000000       4.52228868       6.01359073      -0.00000000      -2.17445528
3
Lattice="10.0 0.0 0.0 0.0 10.0 0.0 0.0 0.0 10.0" Properties=species:S:1:pos:R:3:forces:R:3 energy=-155.82878884909 free_energy=-155.82878884909 stress="0.0040662454040772 -2.5366398100124e-20 -0.00096268369379764 -2.5366398100124e-20 -0.00018638656671443 -1.588481212672e-21 -0.00096268369379764 -1.588481212672e-21 0.0068719846621495" pbc="T T T"
O        4.46834705       5.00000000       4.51732390       3.86210832       0.00000000       4.64904128
H        4.46834705       5.00000000       5.71732390       0.03775761      -0.00000000      -5.55228203
H        5.53165295       5.00000000       4.28267610      -3.89986593       0.00000000       0.90324075
3
Lattice="10.0 0.0 0.0 0.0 10.0 0.0 0.0 0.0 10.0" Properties=species:S:1:pos:R:3:forces:R:3 energy=-156.90542339615 free_energy=-156.90542339615 stress="-0.0017557481292928 7.438177224391e-20 0.00065418262022122 7.438177224391e-20 -0.00020698682216088 6.1619110176553e-20 0.00065418262022122 6.1619110176553e-20 -0.0020516903330484" pbc="T T T"
O        4.55483315       5.00000000       4.65909674      -1.67150693       0.00000000      -1.27996508
H        4.55483315       5.00000000       5.58131897      -0.21785639      -0.00000000       2.01896715
H        5.44516685       5.00000000       4.41868103       1.88936332      -0.00000000      -0.73900208
3
Lattice="10.0 0.0 0.0 0.0 10.0 0.0 0.0 0.0 10.0" Properties=species:S:1:pos:R:3:forces:R:3 energy=-155.27426447384 free_energy=-155.27426447384 stress="0.0060194770339517 1.942968465171e-20 -0.0020606047957559 1.942968465171e-20 -0.00018482846994966 -7.5640622442904e-20 -0.0020606047957559 -7.5640622442904e-20 0.0072833822868928" pbc="T T T"
O        4.42324298       5.00000000       4.56538241       5.02830328       0.00000000       3.78726159
H        4.42324298       5.00000000       5.76538241       0.25733109      -0.00000000      -5.57189034
H        5.57675702       5.00000000       4.23461759      -5.28563438       0.00000000       1.78462876
3
Lattice="10.0 0.0 0.0 0.0 10.0 0.0 0.0 0.0 10.0" Properties=species:S:1:pos:R:3:forces:R:3 energy=-156.37563504769 free_energy=-156.37563504769 stress="-0.0019159397766229 -1.3259805507814e-19 0.00048670346177755 -1.3259805507814e-19 -0.00019706000893582 -1.0877000742838e-19 0.00048670346177755 -1.0877000742838e-19 0.0055948503585922" pbc="T T T"
O        4.55302188       5.00000000       4.54106511      -2.04219161      -0.00000000       5.55625526
H        4.55302188       5.00000000       5.68550955      -0.01844802       0.00000000      -5.00763392
H        5.44697812       5.00000000       4.31449045       2.06063963       0.00000000      -0.54862134
3
Lattice="10.0 0.0 0.0 0.0 10.0 0.0 0.0 0.0 10.0" Properties=species:S:1:pos:R:3:forces:R:3 energy=-155.82766821379 free_energy=-155.82766821379 stress="0.0040341575503093 -5.6312792880063e-20 -0.0010763347496453 -5.6312792880063e-20 -0.00018689602114787 -5.6554498487881e-20 -0.0010763347496453 -5.6554498487881e-20 0.0069283646473701" pbc="T T T"
O        4.47023113       5.00000000       4.52555753       3.80172441      -0.00000000       4.54709778
H        4.47023113       5.00000000       5.72555753       0.08201848      -0.00000000      -5.56088950
H        5.52976887       5.00000000       4.27444247      -3.88374289       0.00000000       1.01379172
3
Lattice="10.0 0.0 0.0 0.0 10.0 0.0 0.0 0.0 10.0" Properties=species:S:1:pos:R:3:forces:R:3 energy=-156.91946905003 free_energy=-156.91946905003 stress="-0.0018672062975464 -1.230626683596e-19 0.00070640753076894 -1.230626683596e-19 -0.0002028336220658 5.7238526578436e-20 0.00070640753076894 5.7238526578436e-20 0.00061106729168792" pbc="T T T"
O        4.54896527       5.00000000       4.60698150      -1.65590522      -0.00000000       1.59265067
H        4.54896527       5.00000000       5.58475928      -0.33247776      -0.00000000      -0.80535447
H        5.45103473       5.00000000       4.41524072       1.98838298       0.00000000      -0.78729620
3
Lattice="10.0 0.0 0.0 0.0 10.0 0.0 0.0 0.0 10.0" Properties=species:S:1:pos:R:3:forces:R:3 energy=-154.34529315887 free_energy=-154.34529315887 stress="-0.016295858543223 -7.6839625931438e-20 0.0040491183638519 -7.6839625931438e-20 -0.00020662582510223 4.9286168905776e-20 0.0040491183638519 4.9286168905776e-20 0.005769956619864" pbc="T T T"
O        4.63240527       5.00000000       4.48712155     -21.90769121      -0.00000000      11.15272948
H        4.63240527       5.00000000       5.68712155      -0.16861274      -0.00000000      -5.63755455
H        5.36759473       5.00000000       4.31287845      22.07630395       0.00000000      -5.51517493
3
Lattice="10.0 0.0 0.0 0.0 10.0 0.0 0.0 0.0 10.0" Properties=species:S:1:pos:R:3:forces:R:3 energy=-153.24848091744 free_energy=-153.24848091744 stress="0.0043026379440225 -7.179198756425e-21 -0.00053547058089799 -7.179198756425e-21 -0.00021407669746996 5.0207825063399e-20 -0.00053547058089799 5.0207825063399e-20 -0.026139312434443" pbc="T T T"
O        4.46834705       5.00000000       4.76732390       4.76163735      -0.00000000     -38.01839087
H        4.46834705       5.00000000       5.46732390      -0.62488921      -0.00000000      37.51631935
H        5.53165295       5.00000000       4.53267610      -4.13674815       0.00000000       0.50207152
3
Lattice="10.0 0.0 0.0 0.0 10.0 0.0 0.0 0.0 10.0" Properties=species:S:1:pos:R:3:forces:R:3 energy=-156.07936424246 free_energy=-156.07936424246 stress="0.0062605162445509 -5.3084359570038e-20 -0.0015522246061854 -5.3084359570038e-20 -0.0001951822490469 1.5589699448041e-19 -0.0015522246061854 1.5589699448041e-19 -0.0016075407911474" pbc="T T T"
O        4.41726397       5.00000000       4.68178296       5.44911139       0.00000000      -3.48875803
H        4.41726397       5.00000000       5.60400518      -0.00636676      -0.00000000       2.15855176
H        5.58273603       5.00000000       4.39599482      -5.44274463      -0.00000000       1.33020627
3
Lattice="10.0 0.0 0.0 0.0 10.0 0.0 0.0 0.0 10.0" Properties=species:S:1:pos:R:3:forces:R:3 energy=-155.28386357443 free_energy=-155.28386357443 stress="0.0061710490712265 -6.5375683542424e-20 -0.0017184473933898 -6.5375683542424e-20 -0.00018337512878662 -4.9216768231681e-20 -0.0017184473933898 -4.9216768231681e-20 0.0070954377076626" pbc="T T T"
O        4.41726397       5.00000000       4.54289407       5.20825737      -0.00000000       4.08371307
H        4.41726397       5.00000000       5.74289407       0.15243158       0.00000000      -5.55625280
H        5.58273603       5.00000000       4.25710593      -5.36068895       0.00000000       1.47253973
3
Lattice="10.0 0.0 0.0 0.0 10.0 0.0 0.0 0.0 10.0" Properties=species:S:1:pos:R:3:forces:R:3 energy=-155.11165236734 free_energy=-155.11165236734 stress="-0.015819587370021 -1.3218328704995e-19 0.0047489327349505 -1.3218328704995e-19 -0.00021324565115545 -9.8453326859444e-20 0.0047489327349505 -9.8453326859444e-20 0.0016032881030491" pbc="T T T"
O        4.63685669       5.00000000       4.58746300     -21.46207263      -0.00000000       9.44276940
H        4.63685669       5.00000000       5.62079633      -0.22494672       0.00000000      -2.89726198
H        5.36314331       5.00000000       4.37920367      21.68701935       0.00000000      -6.54550741
3
Lattice="10.0 0.0 0.0 0.0 10.0 0.0 0.0 0.0 10.0" Properties=species:S:1:pos:R:3:forces:R:3 energy=-156.82079066606 free_energy=-156.82079066606 stress="-0.0018799046784814 1.9656146342824e-19 0.0006200444591739 1.9656146342824e-19 -0.00020050578302679 -9.7807119974856e-20 0.0006200444591739 -9.7807119974856e-20 0.0026992582554588" pbc="T T T"
O        4.55050683       5.00000000       4.58618928      -1.80915734       0.00000000       3.46352828
H        4.55050683       5.00000000       5.61952261      -0.20040122       0.00000000      -2.76960587
H        5.44949317       5.00000000       4.38047739       2.00955855      -0.00000000      -0.69392241
3
Lattice="10.0 0.0 0.0 0.0 10.0 0.0 0.0 0.0 10.0" Properties=species:S:1:pos:R:3:forces:R:3 energy=-153.57144132852 free_energy=-153.57144132852 stress="0.00088091111515533 1.8439400022012e-19 0.00020439336508992 1.8439400022012e-19 -0.00021977426342277 9.9794641243787e-20 0.00020439336508992 9.9794641243787e-20 -0.026270081300971" pbc="T T T"
O        4.52704145       5.00000000       4.77378430       1.67704254       0.00000000     -37.23816306
H        4.52704145       5.00000000       5.47378430      -0.65599685      -0.00000000      37.45716279
H        5.47295855       5.00000000       4.52621570      -1.02104569      -0.00000000      -0.21899973
3
Lattice="10.0 0.0 0.0 0.0 10.0 0.0 0.0 0.0 10.0" Properties=species:S:1:pos:R:3:forces:R:3 energy=-156.36823285811 free_energy=-156.36823285811 stress="0.0039844871464628 7.7821017479284e-20 -0.0012953775078432 7.7821017479284e-20 -0.00019185138870678 -1.3873147277058e-19 -0.0012953775078432 -1.3873147277058e-19 0.0047916527877437" pbc="T T T"
O        4.47549808       5.00000000       4.60156064       3.73080141      -0.00000000       2.83249846
H        4.47549808       5.00000000       5.69044953       0.14704052       0.00000000      -4.06558215
H        5.52450192       5.00000000       4.30955047      -3.87784193      -0.00000000       1.23308368
3
Lattice="10.0 0.0 0.0 0.0 10.0 0.0 0.0 0.0 10.0" Properties=species:S:1:pos:R:3:forces:R:3 energy=-154.90704352778 free_energy=-154.90704352778 stress="-0.016057100181279 -8.8308559793971e-20 0.0044266594955509 -8.8308559793971e-20 -0.00021058173021674 -1.1039898644523e-19 0.0044266594955509 -1.1039898644523e-19 0.0033618549932402" pbc="T T T"
O        4.63453203       5.00000000       4.55120706     -21.65412543      -0.00000000      10.24470716
H        4.63453203       5.00000000       5.64009595      -0.22182550       0.00000000      -4.18144323
H        5.36546797       5.00000000       4.35990405      21.87595093       0.00000000      -6.06326393
3
Lattice="10.0 0.0 0.0 0.0 10.0 0.0 0.0 0.0 10.0" Properties=species:S:1:pos:R:3:forces:R:3 energy=-156.85444535409 free_energy=-156.85444535409 stress="0.0026287946047186 -5.6687589475346e-21 -0.00057376354473734 -5.6687589475346e-21 -0.00019784663957504 5.0982640858865e-20 -0.00057376354473734 5.0982640858865e-20 0.00090819193111266" pbc="T T T"
O        4.49819953       5.00000000       4.63415878       2.79998006      -0.00000000       0.22183030
H        4.49819953       5.00000000       5.61193656      -0.09554011      -0.00000000      -0.79146425
H        5.50180047       5.00000000       4.38806344      -2.70443996      -0.00000000       0.56963395
3
Lattice="10.0 0.0 0.0 0.0 10.0 0.0 0.0 0.0 10.0" Properties=species:S:1:pos:R:3:forces:R:3 energy=-156.56049910388 free_energy=-156.56049910388 stress="0.0040342466654919 -5.7537757389722e-20 -0.0012043319599316 -5.7537757389722e-20 -0.00019378843187845 -1.1273898115129e-19 -0.0012043319599316 -1.1273898115129e-19 0.0031554785801518" pbc="T T T"
O        4.47438130       5.00000000       4.62526550       3.83122909      -0.00000000       1.59267748
H        4.47438130       5.00000000       5.65859883       0.08665120      -0.00000000      -2.73655562
H        5.52561870       5.00000000       4.34140117      -3.91788029      -0.00000000       1.14387814
3
Lattice="10.0 0.0 0.0 0.0 10.0 0.0 0.0 0.0 10.0" Properties=species:S:1:pos:R:3:forces:R:3 energy=-156.40273459876 free_energy=-156.40273459876 stress="0.004142514300456 1.2253413505751e-19 -0.0010636486218459 1.2253413505751e-19 -0.00020272694736782 8.0586369520134e-20 -0.0010636486218459 8.0586369520134e-20 -0.0052713919440769" pbc="T T T"
O        4.47438130       5.00000000       4.70859883       4.11952484       0.00000000      -7.42442873
H        4.47438130       5.00000000       5.57526550      -0.09378478      -0.00000000       6.41418575
H        5.52561870       5.00000000       4.42473450      -4.02574005       0.00000000       1.01024298
3
Lattice="10.0 0.0 0.0 0.0 10.0 0.0 0.0 0.0 10.0" Properties=species:S:1:pos:R:3:forces:R:3 energy=-151.81354817154 free_energy=-151.81354817154 stress="-0.024796298978167 -1.3859897846709e-19 0.0067797065312523 -1.3859897846709e-19 -0.00023747898557472 -9.8521833627397e-20 0.0067797065312523 -9.8521833627397e-20 -0.018855821143491" pbc="T T T"
O        4.65943430       5.00000000       4.70293778     -35.05233889      -0.00000000     -12.83408782
H        4.65943430       5.00000000       5.45849333      -1.22264575       0.00000000      22.79266662
H        5.34056570       5.00000000       4.54150667      36.27498464       0.00000000      -9.95857881
3
Lattice="10.0 0.0 0.0 0.0 10.0 0.0 0.0 0.0 10.0" Properties=species:S:1:pos:R:3:forces:R:3 energy=-155.32153204339 free_energy=-155.32153204339 stress="0.0062449497215552 -2.1104748543098e-20 -0.0016672095761733 -2.1104748543098e-20 -0.00020321350387692 -1.8079403792661e-19 -0.0016672095761733 -1.8079403792661e-19 -0.010045271716527" pbc="T T T"
O        4.42074674       5.00000000       4.75085948       5.52160515      -0.00000000     -14.37909603
H        4.42074674       5.00000000       5.56197060      -0.05553976       0.00000000      12.94138717
H        5.57925326       5.00000000       4.43802940      -5.46606539       0.00000000       1.43770886
3
Lattice="10.0 0.0 0.0 0.0 10.0 0.0 0.0 0.0 10.0" Properties=species:S:1:pos:R:3:forces:R:3 energy=-154.64260257063 free_energy=-154.64260257063 stress="0.0054339844675473 1.5819079206869e-19 -0.0010518275722446 1.5819079206869e-19 -0.0002081239995643 -1.6817257506144e-19 -0.0010518275722446 -1.6817257506144e-19 -0.016936127028458" pbc="T T T"
O        4.44320210       5.00000000       4.75418575       5.30566562       0.00000000     -23.68702779
H        4.44320210       5.00000000       5.50974130      -0.34368791       0.00000000      22.74398957
H        5.55679790       5.00000000       4.49025870      -4.96197771      -0.00000000       0.94303822
3
Lattice="10.0 0.0 0.0 0.0 10.0 0.0 0.0 0.0 10.0" Properties=species:S:1:pos:R:3:forces:R:3 energy=-156.69009211397 free_energy=-156.69009211397 stress="0.00077347607092733 1.8968609731301e-19 0.00021249534581167 1.8968609731301e-19 -0.00020640973776301 -2.9372557302909e-19 0.00021249534581167 -2.9372557302909e-19 -0.0056449157480463" pbc="T T T"
O        4.52179451       5.00000000       4.66831238       1.34946141      -0.00000000      -6.21057430
H        4.52179451       5.00000000       5.53497905      -0.45502146       0.00000000       6.43576735
H        5.47820549       5.00000000       4.46502095      -0.89443995      -0.00000000      -0.22519304
3
Lattice="10.0 0.0 0.0 0.0 10.0 0.0 0.0 0.0 10.0" Properties=species:S:1:pos:R:3:forces:R:3 energy=-156.16780828864 free_energy=-156.16780828864 stress="0.00080877761186844 1.6807672391873e-19 0.00024192588719522 1.6807672391873e-19 -0.00021056129570396 -2.3628057473018e-19 0.00024192588719522 -2.3628057473018e-19 -0.010555444131088" pbc="T T T"
O        4.52259735       5.00000000       4.69979651       1.47538141       0.00000000     -12.66945129
H        4.52259735       5.00000000       5.51090762      -0.54130678       0.00000000      12.92582300
H        5.47740265       5.00000000       4.48909238      -0.93407463      -0.00000000      -0.25637172
3
Lattice="10.0 0.0 0.0 0.0 10.0 0.0 0.0 0.0 10.0" Properties=species:S:1:pos:R:3:forces:R:3 energy=-156.15777338201 free_energy=-156.15777338201 stress="-0.0016942885544678 -1.2386150906638e-19 0.00080327897325446 -1.2386150906638e-19 -0.00021429676197616 -1.9948139774806e-19 0.00080327897325446 -1.9948139774806e-19 -0.010653169304101" pbc="T T T"
O        4.55391409       5.00000000       4.71119555      -1.34608098      -0.00000000     -11.95118850
H        4.55391409       5.00000000       5.52230666      -0.46864542       0.00000000      12.85571174
H        5.44608591       5.00000000       4.47769334       1.81472641       0.00000000      -0.90452324
3
Lattice="10.0 0.0 0.0 0.0 10.0 0.0 0.0 0.0 10.0" Properties=species:S:1:pos:R:3:forces:R:3 energy=-156.85260661633 free_energy=-156.85260661633 stress="0.00067414908725804 1.6289468787784e-19 -2.5508116312353e-05 1.6289468787784e-19 -0.00019744672755916 -1.4846557863631e-19 -2.5508116312353e-05 -1.4846557863631e-19 0.0028288156011365" pbc="T T T"
O        4.52342893       5.00000000       4.59238542       0.93439263       0.00000000       2.72236383
H        4.52342893       5.00000000       5.62571875      -0.14320180      -0.00000000      -2.74615516
H        5.47657107       5.00000000       4.37428125      -0.79119083      -0.00000000       0.02379133
3
Lattice="10.0 0.0 0.0 0.0 10.0 0.0 0.0 0.0 10.0" Properties=species:S:1:pos:R:3:forces:R:3 energy=-156.37526325131 free_energy=-156.37526325131 stress="-0.0018926076830614 -4.4563334361312e-20 0.00044738490508146 -4.4563334361312e-20 -0.00019779262590623 -1.3674465234803e-19 0.00044738490508146 -1.3674465234803e-19 0.0056206854154948" pbc="T T T"
O        4.55577898       5.00000000       4.55143515      -2.09709471      -0.00000000       5.53430877
H        4.55577898       5.00000000       5.69587959       0.04991783       0.00000000      -5.02653601
H        5.44422102       5.00000000       4.30412041       2.04717688       0.00000000      -0.50777276
3
Lattice="10.0 0.0 0.0 0.0 10.0 0.0 0.0 0.0 10.0" Properties=species:S:1:pos:R:3:forces:R:3 energy=-156.8261143709 free_energy=-156.8261143709 stress="0.0026396424882372 -5.8691376273627e-20 -0.00066513286594242 -5.8691376273627e-20 -0.00020146220298223 6.2018451020348e-20 -0.00066513286594242 6.2018451020348e-20 -0.0017330417113295" pbc="T T T"
O        4.50119858       5.00000000       4.67357962       2.81172562      -0.00000000      -2.73615444
H        4.50119858       5.00000000       5.59580184      -0.07908315      -0.00000000       2.07144400
H        5.49880142       5.00000000       4.40419816      -2.73264247       0.00000000       0.66471044
3
Lattice="10.0 0.0 0.0 0.0 10.0 0.0 0.0 0.0 10.0" Properties=species:S:1:pos:R:3:forces:R:3 energy=-156.40308240648 free_energy=-156.40308240648 stress="-0.0052258140705166 -2.5780395364171e-20 0.0014708035736176 -2.5780395364171e-20 -0.00020277894355437 -9.2637469606428e-20 0.0014708035736176 -9.2637469606428e-20 0.0041042849290939" pbc="T T T"
O        4.58165043       5.00000000       4.56852197      -6.09234200      -0.00000000       5.91282153
H        4.58165043       5.00000000       5.65741086      -0.07245861       0.00000000      -4.14936086
H        5.41834957       5.00000000       4.34258914       6.16480061       0.00000000      -1.76346067
3
Lattice="10.0 0.0 0.0 0.0 10.0 0.0 0.0 0.0 10.0" Properties=species:S:1:pos:R:3:forces:R:3 energy=-156.30600473903 free_energy=-156.30600473903 stress="0.0051750126286348 6.6087842601739e-20 -0.0016232514037511 6.6087842601739e-20 -0.00019218006324903 -8.5545404710471e-20 -0.0016232514037511 -8.5545404710471e-20 0.0032702744017274" pbc="T T T"
O        4.44873778       5.00000000       4.63678766       4.61679395      -0.00000000       1.25278237
H        4.44873778       5.00000000       5.67012100       0.15177387      -0.00000000      -2.72341918
H        5.55126222       5.00000000       4.32987900      -4.76856783      -0.00000000       1.47063680
3
Lattice="10.0 0.0 0.0 0.0 10.0 0.0 0.0 0.0 10.0" Properties=species:S:1:pos:R:3:forces:R:3 energy=-156.07706782856 free_energy=-156.07706782856 stress="0.0061265195224212 -3.5755017975819e-20 -0.0019052825725108 -3.5755017975819e-20 -0.00019645725941465 1.0908322848316e-19 -0.0019052825725108 1.0908322848316e-19 -0.0014078279606208" pbc="T T T"
O        4.42324298       5.00000000       4.70427130       5.25139354       0.00000000      -3.77183224
H        4.42324298       5.00000000       5.62649352       0.13225302      -0.00000000       2.12157119
H        5.57675702       5.00000000       4.37350648      -5.38364655       0.00000000       1.65026104
3
Lattice="10.0 0.0 0.0 0.0 10.0 0.0 0.0 0.0 10.0" Properties=species:S:1:pos:R:3:forces:R:3 energy=-156.40577949078 free_energy=-156.40577949078 stress="0.0051807761163044 4.4446377994089e-20 -0.0016477423853082 4.4446377994089e-20 -0.00019503636911859 -7.7003624377533e-20 -0.0016477423853082 -7.7003624377533e-20 0.0012424317298305" pbc="T T T"
O        4.44994470       5.00000000       4.66883693       4.64725715      -0.00000000      -0.71223172
H        4.44994470       5.00000000       5.64661471       0.13844293      -0.00000000      -0.78399137
H        5.55005530       5.00000000       4.35338529      -4.78570008      -0.00000000       1.49622309
3
Lattice="10.0 0.0 0.0 0.0 10.0 0.0 0.0 0.0 10.0" Properties=species:S:1:pos:R:3:forces:R:3 energy=-154.44282644606 free_energy=-154.44282644606 stress="-0.0097127611347096 -6.0473491494226e-20 0.003111739146207 -6.0473491494226e-20 -0.00022697812256234 -1.0163116905506e-19 0.003111739146207 -1.0163116905506e-19 -0.017942899827731" pbc="T T T"
O        4.60687467       5.00000000       4.72186048     -11.37701919      -0.00000000     -18.71833216
H        4.60687467       5.00000000       5.47741603      -0.88493317       0.00000000      22.68165526
H        5.39312533       5.00000000       4.52258397      12.26195236       0.00000000      -3.96332310
3
Lattice="10.0 0.0 0.0 0.0 10.0 0.0 0.0 0.0 10.0" Properties=species:S:1:pos:R:3:forces:R:3 energy=-156.68128799921 free_energy=-156.68128799921 stress="-0.0017172118712865 6.9722631877134e-20 0.00071775875746473 6.9722631877134e-20 -0.00021045811387568 -2.4853155085626e-19 0.00071775875746473 -2.4853155085626e-19 -0.005704405109086" pbc="T T T"
O        4.55483315       5.00000000       4.68687452      -1.52816572      -0.00000000      -5.53177764
H        4.55483315       5.00000000       5.55354119      -0.31719887       0.00000000       6.34216173
H        5.44516685       5.00000000       4.44645881       1.84536459      -0.00000000      -0.81038409
3
Lattice="10.0 0.0 0.0 0.0 10.0 0.0 0.0 0.0 10.0" Properties=species:S:1:pos:R:3:forces:R:3 energy=-155.620915533 free_energy=-155.620915533 stress="0.0053104083361287 2.8312533956351e-20 -0.0014367280634391 2.8312533956351e-20 -0.00020495688006929 -2.6970710206919e-19 -0.0014367280634391 -2.6970710206919e-19 -0.010074208323171" pbc="T T T"
O        4.44873778       5.00000000       4.74789877       4.98282630      -0.00000000     -14.21699810
H        4.44873778       5.00000000       5.55900988      -0.08479166       0.00000000      12.91528027
H        5.55126222       5.00000000       4.44099012      -4.89803465      -0.00000000       1.30171784
3
Lattice="10.0 0.0 0.0 0.0 10.0 0.0 0.0 0.0 10.0" Properties=species:S:1:pos:R:3:forces:R:3 energy=-156.92182494461 free_energy=-156.92182494461 stress="0.00074257248924381 1.1962599295669e-19 0.00011560755111561 1.1962599295669e-19 -0.00020296761666453 7.6809521710306e-20 0.00011560755111561 7.6809521710306e-20 -0.0019820790325471" pbc="T T T"
O        4.52259735       5.00000000       4.64424096       1.18538048       0.00000000      -1.97706835
H        4.52259735       5.00000000       5.56646318      -0.32284566      -0.00000000       2.10115669
H        5.47740265       5.00000000       4.43353682      -0.86253482      -0.00000000      -0.12408834
3
Lattice="10.0 0.0 0.0 0.0 10.0 0.0 0.0 0.0 10.0" Properties=species:S:1:pos:R:3:forces:R:3 energy=-156.14626943299 free_energy=-156.14626943299 stress="-0.0052110362055558 -9.8215436877326e-20 0.0014497825984401 -9.8215436877326e-20 -0.0002014590183251 -1.5917535703096e-19 0.0014497825984401 -1.5917535703096e-19 0.0053562748609628" pbc="T T T"
O        4.58345327       5.00000000       4.54722063      -6.19390372      -0.00000000       6.79988877
H        4.58345327       5.00000000       5.69166508       0.02056414       0.00000000      -5.05397886
H        5.41654673       5.00000000       4.30833492       6.17333958       0.00000000      -1.74590991
3
Lattice="10.0 0.0 0.0 0.0 10.0 0.0 0.0 0.0 10.0" Properties=species:S:1:pos:R:3:forces:R:3 energy=-156.14593498093 free_energy=-156.14593498093 stress="0.0052749029914341 6.3904605282836e-20 -0.0014910794312562 6.3904605282836e-20 -0.0002011556069439 2.990373674317e-21 -0.0014910794312562 2.990373674317e-21 -0.0051528659313598" pbc="T T T"
O        4.44873778       5.00000000       4.72012100       4.86848953      -0.00000000      -7.77801502
H        4.44873778       5.00000000       5.58678766      -0.00470001      -0.00000000       6.42707185
H        5.55126222       5.00000000       4.41321234      -4.86378952      -0.00000000       1.35094317
3
Lattice="10.0 0.0 0.0 0.0 10.0 0.0 0.0 0.0 10.0" Properties=species:S:1:pos:R:3:forces:R:3 energy=-156.40828678575 free_energy=-156.40828678575 stress="0.00061471239582646 1.631227829136e-19 -0.00011073140165302 1.631227829136e-19 -0.00019331082204195 -2.0411273855902e-19 -0.00011073140165302 -2.0411273855902e-19 0.0057017168517533" pbc="T T T"
O        4.52342893       5.00000000       4.53682986       0.77203476       0.00000000       4.85756640
H        4.52342893       5.00000000       5.68127431      -0.04324930       0.00000000      -4.97083482
H        5.47657107       5.00000000       4.31872569      -0.72878546      -0.00000000       0.11326842
3
Lattice="10.0 0.0 0.0 0.0 10.0 0.0 0.0 0.0 10.0" Properties=species:S:1:pos:R:3:forces:R:3 energy=-153.00871423161 free_energy=-153.00871423161 stress="0.0053525846268171 1.1120415073043e-19 -0.0013822809895835 1.1120415073043e-19 -0.00021335507185079 7.8463186891205e-21 -0.0013822809895835 7.8463186891205e-21 -0.02581738167668" pbc="T T T"
O        4.44994470       5.00000000       4.80772582       5.21130340       0.00000000     -38.70745225
H        4.44994470       5.00000000       5.50772582      -0.25976359      -0.00000000      37.45216000
H        5.55005530       5.00000000       4.49227418      -4.95153981      -0.00000000       1.25529224
3
Lattice="10.0 0.0 0.0 0.0 10.0 0.0 0.0 0.0 10.0" Properties=species:S:1:pos:R:3:forces:R:3 energy=-156.62900529693 free_energy=-156.62900529693 stress="-0.0019030142808287 -1.2823372952191e-19 0.00055665347821982 -1.2823372952191e-19 -0.00019847994989871 -1.5841381563171e-19 0.00055665347821982 -1.5841381563171e-19 0.0043111027679124" pbc="T T T"
O        4.55131820       5.00000000       4.56189510      -1.92511255      -0.00000000       4.72111469
H        4.55131820       5.00000000       5.65078398      -0.11370777       0.00000000      -4.09659461
H        5.44868180       5.00000000       4.34921602       2.03882033       0.00000000      -0.62452008
3
Lattice="10.0 0.0 0.0 0.0 10.0 0.0 0.0 0.0 10.0" Properties=species:S:1:pos:R:3:forces:R:3 energy=-156.45852710535 free_energy=-156.45852710535 stress="-0.0050841439552272 -1.8521789986494e-19 0.0017062782963012 -1.8521789986494e-19 -0.00021402398758323 1.4713422666997e-19 0.0017062782963012 1.4713422666997e-19 -0.0059609917987392" pbc="T T T"
O        4.58165043       5.00000000       4.67963308      -5.58710079       0.00000000      -4.27772371
H        4.58165043       5.00000000       5.54629975      -0.40659484      -0.00000000       6.32233439
H        5.41834957       5.00000000       4.45370025       5.99369563       0.00000000      -2.04461068
3
Lattice="10.0 0.0 0.0 0.0 10.0 0.0 0.0 0.0 10.0" Properties=species:S:1:pos:R:3:forces:R:3 energy=-156.11274551524 free_energy=-156.11274551524 stress="0.00058023612458202 1.3842432340377e-19 -0.00027101961829718 1.3842432340377e-19 -0.00019266777982153 -3.9735032025201e-20 -0.00027101961829718 -3.9735032025201e-20 0.006784517313349" pbc="T T T"
O        4.52704145       5.00000000       4.52378430       0.61836077       0.00000000       5.31427445
H        4.52704145       5.00000000       5.72378430       0.07997240      -0.00000000      -5.59796433
H        5.47295855       5.00000000       4.27621570      -0.69833317      -0.00000000       0.28368989
3
Lattice="10.0 0.0 0.0 0.0 10.0 0.0 0.0 0.0 10.0" Properties=species:S:1:pos:R:3:forces:R:3 energy=-155.5764718982 free_energy=-155.5764718982 stress="0.0061786442930087 -5.4022503017031e-21 -0.0016941776532584 -5.4022503017031e-21 -0.00018513304473173 -1.4150458600623e-19 -0.0016941776532584 -1.4150458600623e-19 0.006067667119043" pbc="T T T"
O        4.41726397       5.00000000       4.57067185       5.23092115       0.00000000       3.48219732
H        4.41726397       5.00000000       5.71511629       0.13698935       0.00000000      -4.93396810
H        5.58273603       5.00000000       4.28488371      -5.36791050      -0.00000000       1.45177078
3
Lattice="10.0 0.0 0.0 0.0 10.0 0.0 0.0 0.0 10.0" Properties=species:S:1:pos:R:3:forces:R:3 energy=-154.34948324809 free_energy=-154.34948324809 stress="0.006274528499821 -1.2241919896433e-19 -0.0016118970035804 -1.2241919896433e-19 -0.00020732149751949 -1.0232968305368e-19 -0.0016118970035804 -1.0232968305368e-19 -0.016730765634376" pbc="T T T"
O        4.42074674       5.00000000       4.77863726       5.63769737      -0.00000000     -24.11092465
H        4.42074674       5.00000000       5.53419282      -0.14403696       0.00000000      22.72088034
H        5.57925326       5.00000000       4.46580718      -5.49366041       0.00000000       1.39004431
3
Lattice="10.0 0.0 0.0 0.0 10.0 0.0 0.0 0.0 10.0" Properties=species:S:1:pos:R:3:forces:R:3 energy=-156.37196259568 free_energy=-156.37196259568 stress="0.005395306240121 -1.0934666762323e-20 -0.001009689614363 -1.0934666762323e-20 -0.00019594225789335 5.7211790203729e-20 -0.001009689614363 5.7211790203729e-20 -0.0017947923325764" pbc="T T T"
O        4.44028221       5.00000000       4.65786058       5.06513342       0.00000000      -3.07294109
H        4.44028221       5.00000000       5.58008280      -0.16997777      -0.00000000       2.17279347
H        5.55971779       5.00000000       4.41991720      -4.89515566      -0.00000000       0.90014762
3
Lattice="10.0 0.0 0.0 0.0 10.0 0.0 0.0 0.0 10.0" Properties=species:S:1:pos:R:3:forces:R:3 energy=-154.34927968657 free_energy=-154.34927968657 stress="-0.01610343426716 -1.2074279146619e-19 0.0043268995206134 -1.2074279146619e-19 -0.00020722371636176 3.3451986008652e-20 0.0043268995206134 3.3451986008652e-20 0.0056278789156818" pbc="T T T"
O        4.63453203       5.00000000       4.49565151     -21.83290935      -0.00000000      11.58596115
H        4.63453203       5.00000000       5.69565151      -0.10807317      -0.00000000      -5.65867952
H        5.36546797       5.00000000       4.30434849      21.94098252       0.00000000      -5.92728164
3
Lattice="10.0 0.0 0.0 0.0 10.0 0.0 0.0 0.0 10.0" Properties=species:S:1:pos:R:3:forces:R:3 energy=-156.1424649692 free_energy=-156.1424649692 stress="-0.0053658419842289 -1.7671746436721e-19 0.0013696783377838 -1.7671746436721e-19 -0.00019990221675157 -6.8103722511804e-20 0.0013696783377838 -6.8103722511804e-20 0.00539079115908" pbc="T T T"
O        4.57758473       5.00000000       4.52443758      -6.13322395      -0.00000000       6.63272792
H        4.57758473       5.00000000       5.66888202      -0.13778543       0.00000000      -5.00591325
H        5.42241527       5.00000000       4.33111798       6.27100938       0.00000000      -1.62681466
3
Lattice="10.0 0.0 0.0 0.0 10.0 0.0 0.0 0.0 10.0" Properties=species:S:1:pos:R:3:forces:R:3 energy=-155.16927089174 free_energy=-155.16927089174 stress="-0.0017384452858382 -1.4861215047167e-19 0.00096053661575468 -1.4861215047167e-19 -0.0002183529153002 -7.4451316061384e-20 0.00096053661575468 -7.4451316061384e-20 -0.017389411887253" pbc="T T T"
O        4.54972250       5.00000000       4.72158838      -1.05811201      -0.00000000     -21.64641650
H        4.54972250       5.00000000       5.47714393      -0.78685647       0.00000000      22.71706923
H        5.45027750       5.00000000       4.52285607       1.84496849       0.00000000      -1.07065273
3
Lattice="10.0 0.0 0.0 0.0 10.0 0.0 0.0 0.0 10.0" Properties=species:S:1:pos:R:3:forces:R:3 energy=-156.17752229133 free_energy=-156.17752229133 stress="-0.0098459806925963 -2.1367445642067e-19 0.0027546304312055 -2.1367445642067e-19 -0.00021094989571953 4.287051366566e-20 0.0027546304312055 4.287051366566e-20 0.00015970461997379" pbc="T T T"
O        4.60611361       5.00000000       4.60769692     -12.05047523      -0.00000000       4.38949093
H        4.60611361       5.00000000       5.58547470      -0.36421406      -0.00000000      -0.88643522
H        5.39388639       5.00000000       4.41452530      12.41468928       0.00000000      -3.50305570
3
Lattice="10.0 0.0 0.0 0.0 10.0 0.0 0.0 0.0 10.0" Properties=species:S:1:pos:R:3:forces:R:3 energy=-156.01084267864 free_energy=-156.01084267864 stress="0.0061001285059148 -1.42484867133e-20 -0.0019143980957684 -1.42484867133e-20 -0.00019054342301612 -2.6041952443143e-20 -0.0019143980957684 -2.6041952443143e-20 0.0033350437416576" pbc="T T T"
O        4.42197747       5.00000000       4.64423690       5.16137262       0.00000000       1.05358778
H        4.42197747       5.00000000       5.67757023       0.18483431       0.00000000      -2.70796314
H        5.57802253       5.00000000       4.32242977      -5.34620693       0.00000000       1.65437536
3
Lattice="10.0 0.0 0.0 0.0 10.0 0.0 0.0 0.0 10.0" Properties=species:S:1:pos:R:3:forces:R:3 energy=-151.80625615451 free_energy=-151.80625615451 stress="-0.024896232827857 -1.6770401760607e-19 0.0066280097080282 -1.6770401760607e-19 -0.00023757332749619 -1.326176725346e-19 0.0066280097080282 -1.326176725346e-19 -0.018778893870803" pbc="T T T"
O        4.65881844       5.00000000       4.70029360     -35.09712629      -0.00000000     -13.08972759
H        4.65881844       5.00000000       5.45584916      -1.25903240       0.00000000      22.80805179
H        5.34118156       5.00000000       4.54415084      36.35615869       0.00000000      -9.71832420
3
Lattice="10.0 0.0 0.0 0.0 10.0 0.0 0.0 0.0 10.0" Properties=species:S:1:pos:R:3:forces:R:3 energy=-156.89742589528 free_energy=-156.89742589528 stress="-0.0017994793516975 -6.3809816323333e-20 0.00071793860772173 -6.3809816323333e-20 -0.00020636758369858 1.7778164031668e-20 0.00071793860772173 1.7778164031668e-20 -0.0020896638897092" pbc="T T T"
O        4.55131820       5.00000000       4.64522843      -1.58769922      -0.00000000      -1.25438656
H        4.55131820       5.00000000       5.56745065      -0.33530274      -0.00000000       2.05863968
H        5.44868180       5.00000000       4.43254935       1.92300196       0.00000000      -0.80425313
3
Lattice="10.0 0.0 0.0 0.0 10.0 0.0 0.0 0.0 10.0" Properties=species:S:1:pos:R:3:forces:R:3 energy=-156.1182417981 free_energy=-156.1182417981 stress="0.0051983022115357 1.1178713958412e-19 -0.0015300174633798 1.1178713958412e-19 -0.00018937893567461 -1.0537538465084e-19 -0.0015300174633798 -1.0537538465084e-19 0.0048021939077007" pbc="T T T"
O        4.44642351       5.00000000       4.60043946       4.63487784      -0.00000000       2.65817174
H        4.44642351       5.00000000       5.68932835       0.13343206       0.00000000      -4.03831704
H        5.55357649       5.00000000       4.31067165      -4.76830990      -0.00000000       1.38014530
3
Lattice="10.0 0.0 0.0 0.0 10.0 0.0 0.0 0.0 10.0" Properties=species:S:1:pos:R:3:forces:R:3 energy=-155.27657410689 free_energy=-155.27657410689 stress="0.006051953001768 -8.9255363417954e-20 -0.0019936653404079 -8.9255363417954e-20 -0.00018452544290719 -5.5742304872907e-20 -0.0019936653404079 -5.5742304872907e-20 0.0072440608753848" pbc="T T T"
O        4.42197747       5.00000000       4.56090357       5.06538521      -0.00000000       3.84610887
H        4.42197747       5.00000000       5.76090357       0.23660596       0.00000000      -5.56888622
H        5.57802253       5.00000000       4.23909643      -5.30199117      -0.00000000       1.72277735
3
Lattice="10.0 0.0 0.0 0.0 10.0 0.0 0.0 0.0 10.0" Properties=species:S:1:pos:R:3:forces:R:3 energy=-156.16362856992 free_energy=-156.16362856992 stress="-0.0096397486686514 -4.0303780716253e-20 0.0029915747762327 -4.0303780716253e-20 -0.00021456637426566 1.0173514290627e-19 0.0029915747762327 1.0173514290627e-19 -0.0026699641091474" pbc="T T T"
O        4.60929959       5.00000000       4.64764778     -11.89590123       0.00000000       1.86990182
H        4.60929959       5.00000000       5.56987000      -0.35454033      -0.00000000       1.96477012
H        5.39070041       5.00000000       4.43013000      12.25044156       0.00000000      -3.83467193
3
Lattice="10.0 0.0 0.0 0.0 10.0 0.0 0.0 0.0 10.0" Properties=species:S:1:pos:R:3:forces:R:3 energy=-153.27033247669 free_energy=-153.27033247669 stress="-0.024226611636666 -1.0601105806012e-19 0.0071660401670602 -1.0601105806012e-19 -0.0002152706483093 -1.0016983183276e-19 0.0071660401670602 -1.0016983183276e-19 0.0025064831653888" pbc="T T T"
O        4.66355841       5.00000000       4.55202863     -35.67206045      -0.00000000      14.87770129
H        4.66355841       5.00000000       5.64091752      -0.22078087       0.00000000      -4.22122216
H        5.33644159       5.00000000       4.35908248      35.89284131       0.00000000     -10.65647912
3
Lattice="10.0 0.0 0.0 0.0 10.0 0.0 0.0 0.0 10.0" Properties=species:S:1:pos:R:3:forces:R:3 energy=-156.1798175363 free_energy=-156.1798175363 stress="0.00082178699023676 9.416519585218e-20 0.00010119847554803 9.416519585218e-20 -0.00021102310515793 -1.8062284061168e-19 0.00010119847554803 -1.8062284061168e-19 -0.010488148136526" pbc="T T T"
O        4.52609549       5.00000000       4.71455631       1.36266638       0.00000000     -12.77436984
H        4.52609549       5.00000000       5.52566742      -0.40844256       0.00000000      12.88413571
H        5.47390451       5.00000000       4.47433258      -0.95422383      -0.00000000      -0.10976587
3
Lattice="10.0 0.0 0.0 0.0 10.0 0.0 0.0 0.0 10.0" Properties=species:S:1:pos:R:3:forces:R:3 energy=-151.80627254607 free_energy=-151.80627254607 stress="-0.01624714184768 -1.3991428196633e-19 0.0046497470509744 -1.3991428196633e-19 -0.00023757512650215 1.5942595209379e-19 0.0046497470509744 1.5942595209379e-19 -0.027406000544795" pbc="T T T"
O        4.63174053       5.00000000       4.73426752     -20.59272099      -0.00000000     -31.28836727
H        4.63174053       5.00000000       5.43426752      -1.35823207      -0.00000000      37.60687987
H        5.36825947       5.00000000       4.56573248      21.95095305       0.00000000      -6.31851260
3
Lattice="10.0 0.0 0.0 0.0 10.0 0.0 0.0 0.0 10.0" Properties=species:S:1:pos:R:3:forces:R:3 energy=-155.08656580608 free_energy=-155.08656580608 stress="0.00278167540526 1.6224951820879e-20 -0.00014556323635671 1.6224951820879e-20 -0.0002120039355693 -1.8380657755291e-19 -0.00014556323635671 -1.8380657755291e-19 -0.017162298207213" pbc="T T T"
O        4.49462374       5.00000000       4.72964326       3.45950925      -0.00000000     -22.88684585
H        4.49462374       5.00000000       5.48519882      -0.61703630       0.00000000      22.74489588
H        5.50537626       5.00000000       4.51480118      -2.84247295      -0.00000000       0.14194997
3
Lattice="10.0 0.0 0.0 0.0 10.0 0.0 0.0 0.0 10.0" Properties=species:S:1:pos:R:3:forces:R:3 energy=-153.56032221298 free_energy=-153.56032221298 stress="-0.024162302828666 -1.6613132898264e-19 0.0073740573284326 -1.6613132898264e-19 -0.00022341243005192 1.3614673787296e-19 0.0073740573284326 1.3614673787296e-19 -0.0039414068093716" pbc="T T T"
O        4.66355841       5.00000000       4.63536196     -35.28136834      -0.00000000       9.02583172
H        4.66355841       5.00000000       5.55758419      -0.50748686      -0.00000000       1.93879338
H        5.33644159       5.00000000       4.44241581      35.78885520       0.00000000     -10.96462510
3
Lattice="10.0 0.0 0.0 0.0 10.0 0.0 0.0 0.0 10.0" Properties=species:S:1:pos:R:3:forces:R:3 energy=-155.32245361443 free_energy=-155.32245361443 stress="-0.0097496308807249 -1.1077906498596e-19 0.0027694449926781 -1.1077906498596e-19 -0.00020377959494999 -1.5676146861051e-20 0.0027694449926781 -1.5676146861051e-20 0.0059847195892408" pbc="T T T"
O        4.61015498       5.00000000       4.51178626     -12.42603576      -0.00000000       9.22280630
H        4.61015498       5.00000000       5.71178626       0.00535191      -0.00000000      -5.66386995
H        5.38984502       5.00000000       4.28821374      12.42068385       0.00000000      -3.55893635
3
Lattice="10.0 0.0 0.0 0.0 10.0 0.0 0.0 0.0 10.0" Properties=species:S:1:pos:R:3:forces:R:3 energy=-155.56785237274 free_energy=-155.56785237274 stress="0.0060296986274405 -1.5169825179422e-20 -0.0020393352917457 -1.5169825179422e-20 -0.00018657150998735 -1.2891406462233e-19 -0.0020393352917457 -1.2891406462233e-19 0.0062593584915124" pbc="T T T"
O        4.42324298       5.00000000       4.59316019       5.04654011      -0.00000000       3.18748037
H        4.42324298       5.00000000       5.73760464       0.24864933       0.00000000      -4.95372383
H        5.57675702       5.00000000       4.26239536      -5.29518944      -0.00000000       1.76624346
3
Lattice="10.0 0.0 0.0 0.0 10.0 0.0 0.0 0.0 10.0" Properties=species:S:1:pos:R:3:forces:R:3 energy=-155.84803187214 free_energy=-155.84803187214 stress="0.006213966026056 -4.7315620820605e-20 -0.0017190290416696 -4.7315620820605e-20 -0.00019937622405883 8.1506874323324e-20 -0.0017190290416696 8.1506874323324e-20 -0.0051271558192984" pbc="T T T"
O        4.42074674       5.00000000       4.72308171       5.41940135       0.00000000      -7.93627681
H        4.42074674       5.00000000       5.58974837       0.01797824      -0.00000000       6.45390958
H        5.57925326       5.00000000       4.41025163      -5.43737959       0.00000000       1.48236723
3
Lattice="10.0 0.0 0.0 0.0 10.0 0.0 0.0 0.0 10.0" Properties=species:S:1:pos:R:3:forces:R:3 energy=-155.87888435475 free_energy=-155.87888435475 stress="-0.0097807912626792 -6.7107955886364e-20 0.0027691611238869 -6.7107955886364e-20 -0.0002066169670218 -1.2792884617242e-19 0.0027691611238869 -1.2792884617242e-19 0.0037707196309966" pbc="T T T"
O        4.60846771       5.00000000       4.56128054     -12.27296111      -0.00000000       7.71443179
H        4.60846771       5.00000000       5.65016943      -0.13416768       0.00000000      -4.17146383
H        5.39153229       5.00000000       4.34983057      12.40712880       0.00000000      -3.54296796
3
Lattice="10.0 0.0 0.0 0.0 10.0 0.0 0.0 0.0 10.0" Properties=species:S:1:pos:R:3:forces:R:3 energy=-153.54845941884 free_energy=-153.54845941884 stress="-0.024485898073765 -7.9496882764663e-20 0.0069316534558062 -7.9496882764663e-20 -0.00022323040820833 1.1673823961981e-19 0.0069316534558062 1.1673823961981e-19 -0.0036802537586164" pbc="T T T"
O        4.66140467       5.00000000       4.62750720     -35.45116426      -0.00000000       8.26595557
H        4.66140467       5.00000000       5.54972942      -0.58881191      -0.00000000       1.97573413
H        5.33859533       5.00000000       4.45027058      36.03997617       0.00000000     -10.24168970
3
Lattice="10.0 0.0 0.0 0.0 10.0 0.0 0.0 0.0 10.0" Properties=species:S:1:pos:R:3:forces:R:3 energy=-150.14555929812 free_energy=-150.14555929812 stress="-0.025033680350881 -1.9786123474345e-19 0.0065958913827566 -1.9786123474345e-19 -0.00024353655676388 6.380538267174e-21 0.0065958913827566 6.380538267174e-21 -0.027878979751115" pbc="T T T"
O        4.65822311       5.00000000       4.72542250     -34.92904069      -0.00000000     -28.05697714
H        4.65822311       5.00000000       5.42542250      -1.56006006      -0.00000000      37.71112801
H        5.34177689       5.00000000       4.57457750      36.48910074       0.00000000      -9.65415087
3
Lattice="10.0 0.0 0.0 0.0 10.0 0.0 0.0 0.0 10.0" Properties=species:S:1:pos:R:3:forces:R:3 energy=-156.85574026004 free_energy=-156.85574026004 stress="0.00066792640493161 1.0137290070544e-19 -0.00019200650417213 1.0137290070544e-19 -0.0001985189247622 -1.2398549796724e-19 -0.00019200650417213 -1.2398549796724e-19 0.0029237914340337" pbc="T T T"
O        4.52801587       5.00000000       4.61078263       0.80353107       0.00000000       2.58410945
H        4.52801587       5.00000000       5.64411596      -0.01133988      -0.00000000      -2.78455952
H        5.47198413       5.00000000       4.35588404      -0.79219119      -0.00000000       0.20045007
3
Lattice="10.0 0.0 0.0 0.0 10.0 0.0 0.0 0.0 10.0" Properties=species:S:1:pos:R:3:forces:R:3 energy=-155.10272977488 free_energy=-155.10272977488 stress="-0.016098261661828 -1.4535501030241e-19 0.0043963978950455 -1.4535501030241e-19 -0.0002126572989635 -7.5231634324739e-20 0.0043963978950455 -7.5231634324739e-20 0.0018039972985155" pbc="T T T"
O        4.63380106       5.00000000       4.57614705     -21.56506781      -0.00000000       8.86825296
H        4.63380106       5.00000000       5.60948038      -0.32229338       0.00000000      -2.85864842
H        5.36619894       5.00000000       4.39051962      21.88736118       0.00000000      -6.00960454
3
Lattice="10.0 0.0 0.0 0.0 10.0 0.0 0.0 0.0 10.0" Properties=species:S:1:pos:R:3:forces:R:3 energy=-156.37105697462 free_energy=-156.37105697462 stress="0.0040406884170901 9.3361848820288e-22 -0.001128280797929 9.3361848820288e-22 -0.00019104798457728 -8.3172434625722e-20 -0.001128280797929 -8.3172434625722e-20 0.0046952401193664" pbc="T T T"
O        4.47224270       5.00000000       4.58931650       3.83271142      -0.00000000       2.98127633
H        4.47224270       5.00000000       5.67820539       0.07398983       0.00000000      -4.04833588
H        5.52775730       5.00000000       4.32179461      -3.90670125      -0.00000000       1.06705955
3
Lattice="10.0 0.0 0.0 0.0 10.0 0.0 0.0 0.0 10.0" Properties=species:S:1:pos:R:3:forces:R:3 energy=-156.371895709 free_energy=-156.371895709 stress="0.004073835475463 5.8030910248307e-20 -0.0010139553884618 5.8030910248307e-20 -0.00019054518907154 -1.4983490643927e-19 -0.0010139553884618 -1.4983490643927e-19 0.0046339582213547" pbc="T T T"
O        4.47023113       5.00000000       4.58111309       3.89844772      -0.00000000       3.08165074
H        4.47023113       5.00000000       5.67000197       0.02441739       0.00000000      -4.03668452
H        5.52976887       5.00000000       4.32999803      -3.92286511      -0.00000000       0.95503378
3
Lattice="10.0 0.0 0.0 0.0 10.0 0.0 0.0 0.0 10.0" Properties=species:S:1:pos:R:3:forces:R:3 energy=-155.87942252107 free_energy=-155.87942252107 stress="0.0041643518752969 -2.5376045632746e-20 -0.0010632641210898 -2.5376045632746e-20 -0.0002067381316452 -2.6720036710279e-19 -0.0010632641210898 -2.6720036710279e-19 -0.010162887336399" pbc="T T T"
O        4.47549808       5.00000000       4.74044953       4.20970143      -0.00000000     -13.90730423
H        4.47549808       5.00000000       5.55156064      -0.15238699       0.00000000      12.89517794
H        5.52450192       5.00000000       4.44843936      -4.05731444      -0.00000000       1.01212629
3
Lattice="10.0 0.0 0.0 0.0 10.0 0.0 0.0 0.0 10.0" Properties=species:S:1:pos:R:3:forces:R:3 energy=-156.68349031468 free_energy=-156.68349031468 stress="-0.005093529903649 -2.3680459574302e-19 0.0016462204997967 -2.3680459574302e-19 -0.00021062356949743 1.0387772606454e-19 0.0016462204997967 1.0387772606454e-19 -0.002306439786558" pbc="T T T"
O        4.58253929       5.00000000       4.65509702      -5.74982213      -0.00000000      -0.00748059
H        4.58253929       5.00000000       5.57731924      -0.26888533      -0.00000000       1.98460676
H        5.41746071       5.00000000       4.42268076       6.01870746       0.00000000      -1.97712617
3
Lattice="10.0 0.0 0.0 0.0 10.0 0.0 0.0 0.0 10.0" Properties=species:S:1:pos:R:3:forces:R:3 energy=-156.37541510743 free_energy=-156.37541510743 stress="0.0053058693666388 8.0042590248743e-20 -0.0013462904248568 8.0042590248743e-20 -0.00019702237788602 4.5051040816699e-21 -0.0013462904248568 4.5051040816699e-21 -0.0016253987232284" pbc="T T T"
O        4.44531631       5.00000000       4.67947437       4.88392884       0.00000000      -3.34607311
H        4.44531631       5.00000000       5.60169659      -0.02440942      -0.00000000       2.13415445
H        5.55468369       5.00000000       4.39830341      -4.85951942      -0.00000000       1.21191866
3
Lattice="10.0 0.0 0.0 0.0 10.0 0.0 0.0 0.0 10.0" Properties=species:S:1:pos:R:3:forces:R:3 energy=-155.86534433581 free_energy=-155.86534433581 stress="0.0042615561922153 -3.2285222890001e-20 -0.00059381730810054 -3.2285222890001e-20 -0.00020536159616853 -1.8021053863194e-19 -0.00059381730810054 -1.8021053863194e-19 -0.01040573373374" pbc="T T T"
O        4.46745297       5.00000000       4.70764081       4.49627940      -0.00000000     -13.52664401
H        4.46745297       5.00000000       5.51875192      -0.40966084       0.00000000      12.97083428
H        5.53254703       5.00000000       4.48124808      -4.08661856      -0.00000000       0.55580973
3
Lattice="10.0 0.0 0.0 0.0 10.0 0.0 0.0 0.0 10.0" Properties=species:S:1:pos:R:3:forces:R:3 energy=-151.79877068415 free_energy=-151.79877068415 stress="-0.01631627637515 -1.5965653426142e-19 0.0045610902284202 -1.5965653426142e-19 -0.00023767763418842 9.25811348154e-20 0.0045610902284202 9.25811348154e-20 -0.027360512147543" pbc="T T T"
O        4.63109795       5.00000000       4.73140842     -20.60858574      -0.00000000     -31.43361909
H        4.63109795       5.00000000       5.43140842      -1.39795407      -0.00000000      37.62098243
H        5.36890205       5.00000000       4.56859158      22.00653981       0.00000000      -6.18736334
3
Lattice="10.0 0.0 0.0 0.0 10.0 0.0 0.0 0.0 10.0" Properties=species:S:1:pos:R:3:forces:R:3 energy=-156.66802971793 free_energy=-156.66802971793 stress="-0.0052431594879336 -1.256222410916e-19 0.0015939090158321 -1.256222410916e-19 -0.0002098494150604 1.0780607706768e-19 0.0015939090158321 1.0780607706768e-19 -0.002282710293128" pbc="T T T"
O        4.57758473       5.00000000       4.63554869      -5.68115096      -0.00000000      -0.15555833
H        4.57758473       5.00000000       5.55777091      -0.44396267      -0.00000000       2.04756306
H        5.42241527       5.00000000       4.44222909       6.12511363       0.00000000      -1.89200473
3
Lattice="10.0 0.0 0.0 0.0 10.0 0.0 0.0 0.0 10.0" Properties=species:S:1:pos:R:3:forces:R:3 energy=-154.46217838464 free_energy=-154.46217838464 stress="-0.015722777086725 -1.3705722609883e-19 0.0050517270469111 -1.3705722609883e-19 -0.0002270461992413 -1.884956560304e-19 0.0050517270469111 -1.884956560304e-19 -0.011864829346328" pbc="T T T"
O        4.63685669       5.00000000       4.69857411     -20.84774833      -0.00000000      -5.84735761
H        4.63685669       5.00000000       5.50968522      -0.69633412       0.00000000      12.80874367
H        5.36314331       5.00000000       4.49031478      21.54408245       0.00000000      -6.96138605
3
Lattice="10.0 0.0 0.0 0.0 10.0 0.0 0.0 0.0 10.0" Properties=species:S:1:pos:R:3:forces:R:3 energy=-156.11320281882 free_energy=-156.11320281882 stress="0.0062093469681231 3.8740791829988e-21 -0.0016668366826681 3.8740791829988e-21 -0.00019237202062585 -3.4751343050327e-20 -0.0016668366826681 -3.4751343050327e-20 0.001149272862209" pbc="T T T"
O        4.41838992       5.00000000       4.65852113       5.33670874       0.00000000      -0.69156560
H        4.41838992       5.00000000       5.63629891       0.07122693       0.00000000      -0.73972258
H        5.58161008       5.00000000       4.36370109      -5.40793567      -0.00000000       1.43128818
3
Lattice="10.0 0.0 0.0 0.0 10.0 0.0 0.0 0.0 10.0" Properties=species:S:1:pos:R:3:forces:R:3 energy=-156.40200694836 free_energy=-156.40200694836 stress="0.0041580175067711 -5.5112031482141e-20 -0.0010063436300655 -5.5112031482141e-20 -0.00020251809986695 3.3765515877431e-21 -0.0010063436300655 3.3765515877431e-21 -0.005304232508488" pbc="T T T"
O        4.47329616       5.00000000       4.70451737       4.15591804       0.00000000      -7.37704392
H        4.47329616       5.00000000       5.57118404      -0.12387142      -0.00000000       6.42331727
H        5.52670384       5.00000000       4.42881596      -4.03204661      -0.00000000       0.95372665
3
Lattice="10.0 0.0 0.0 0.0 10.0 0.0 0.0 0.0 10.0" Properties=species:S:1:pos:R:3:forces:R:3 energy=-154.90637843857 free_energy=-154.90637843857 stress="0.0042275507089614 3.6101222900323e-20 -0.00088850437188375 3.6101222900323e-20 -0.00021048844437121 -1.3840152076227e-19 -0.00088850437188375 -1.3840152076227e-19 -0.01692026673188" pbc="T T T"
O        4.47329616       5.00000000       4.76007292       4.42584234      -0.00000000     -23.54322938
H        4.47329616       5.00000000       5.51562848      -0.32346342       0.00000000      22.70122893
H        5.52670384       5.00000000       4.48437152      -4.10237892      -0.00000000       0.84200045
3
Lattice="10.0 0.0 0.0 0.0 10.0 0.0 0.0 0.0 10.0" Properties=species:S:1:pos:R:3:forces:R:3 energy=-155.57759518053 free_energy=-155.57759518053 stress="0.006205068038049 -6.9850358330405e-20 -0.0016229356187157 -6.9850358330405e-20 -0.00018486423815629 -1.8892181243129e-19 -0.0016229356187157 -1.8892181243129e-19 0.0060315904550127" pbc="T T T"
O        4.41617308       5.00000000       4.56614730       5.26614028      -0.00000000       3.54187672
H        4.41617308       5.00000000       5.71059174       0.11423402       0.00000000      -4.92988243
H        5.58382692       5.00000000       4.28940826      -5.38037430       0.00000000       1.38800571
3
Lattice="10.0 0.0 0.0 0.0 10.0 0.0 0.0 0.0 10.0" Properties=species:S:1:pos:R:3:forces:R:3 energy=-156.82231524644 free_energy=-156.82231524644 stress="-0.0018702417772718 -1.0761016821222e-19 0.00060481309265164 -1.0761016821222e-19 -0.00020068865610084 -1.9958508658977e-20 0.00060481309265164 -1.9958508658977e-20 0.0027082669566595" pbc="T T T"
O        4.55131820       5.00000000       4.58967287      -1.82870273      -0.00000000       3.45605550
H        4.55131820       5.00000000       5.62300621      -0.17374586      -0.00000000      -2.77785436
H        5.44868180       5.00000000       4.37699379       2.00244860       0.00000000      -0.67820114
3
Lattice="10.0 0.0 0.0 0.0 10.0 0.0 0.0 0.0 10.0" Properties=species:S:1:pos:R:3:forces:R:3 energy=-156.40325975606 free_energy=-156.40325975606 stress="0.0041261279472027 -7.8147900992716e-21 -0.0011203619947843 -7.8147900992716e-21 -0.00020294240686365 -2.7721629735584e-19 -0.0011203619947843 -2.7721629735584e-19 -0.0052379109143933" pbc="T T T"
O        4.47549808       5.00000000       4.71267176       4.08274987      -0.00000000      -7.47148646
H        4.47549808       5.00000000       5.57933842      -0.06394268       0.00000000       6.40499352
H        5.52450192       5.00000000       4.42066158      -4.01880719      -0.00000000       1.06649294
3
Lattice="10.0 0.0 0.0 0.0 10.0 0.0 0.0 0.0 10.0" Properties=species:S:1:pos:R:3:forces:R:3 energy=-153.57818613466 free_energy=-153.57818613466 stress="0.00088793039723435 1.8163731244594e-19 0.00013678147780785 1.8163731244594e-19 -0.00021995102472481 4.5004041431904e-21 0.00013678147780785 4.5004041431904e-21 -0.026238743639747" pbc="T T T"
O        4.52901868       5.00000000       4.78110661       1.61755649       0.00000000     -37.28791617
H        4.52901868       5.00000000       5.48110661      -0.58516451      -0.00000000      37.43606159
H        5.47098132       5.00000000       4.51889339      -1.03239198      -0.00000000      -0.14814542
3
Lattice="10.0 0.0 0.0 0.0 10.0 0.0 0.0 0.0 10.0" Properties=species:S:1:pos:R:3:forces:R:3 energy=-150.19258499692 free_energy=-150.19258499692 stress="-0.024401158983417 -1.6094337188934e-19 0.0074911833531234 -1.6094337188934e-19 -0.00024280149262332 9.6395568834209e-20 0.0074911833531234 9.6395568834209e-20 -0.028369496948341" pbc="T T T"
O        4.66210227       5.00000000       4.74124211     -34.64560404      -0.00000000     -26.52754493
H        4.66210227       5.00000000       5.44124211      -1.32509384      -0.00000000      37.61711352
H        5.33789773       5.00000000       4.55875789      35.97069788       0.00000000     -11.08956860
3
Lattice="10.0 0.0 0.0 0.0 10.0 0.0 0.0 0.0 10.0" Properties=species:S:1:pos:R:3:forces:R:3 energy=-154.42036424287 free_energy=-154.42036424287 stress="-0.016288068688145 -1.35975984777e-19 0.0043555748471207 -1.35975984777e-19 -0.00022705028784886 -1.6892834048778e-19 0.0043555748471207 -1.6892834048778e-19 -0.011473172135638" pbc="T T T"
O        4.63109795       5.00000000       4.67585286     -21.01717157      -0.00000000      -7.00694386
H        4.63109795       5.00000000       5.48696397      -0.95815002       0.00000000      12.91627512
H        5.36890205       5.00000000       4.51303603      21.97532159       0.00000000      -5.90933126
3
Lattice="10.0 0.0 0.0 0.0 10.0 0.0 0.0 0.0 10.0" Properties=species:S:1:pos:R:3:forces:R:3 energy=-155.61465681506 free_energy=-155.61465681506 stress="-0.01001018916008 -2.3607419787421e-19 0.0024943394915453 -2.3607419787421e-19 -0.00020383008925135 -1.0969162818806e-19 0.0024943394915453 -1.0969162818806e-19 0.0051458512829542" pbc="T T T"
O        4.60466263       5.00000000       4.51824144     -12.38753412      -0.00000000       8.18422538
H        4.60466263       5.00000000       5.66268588      -0.19091010       0.00000000      -5.02279677
H        5.39533737       5.00000000       4.33731412      12.57844422       0.00000000      -3.16142862
3
Lattice="10.0 0.0 0.0 0.0 10.0 0.0 0.0 0.0 10.0" Properties=species:S:1:pos:R:3:forces:R:3 energy=-151.8135598656 free_energy=-151.8135598656 stress="-0.016176642446067 -1.6099363365539e-19 0.0047377091287885 -1.6099363365539e-19 -0.00023748025859622 9.3466666305452e-20 0.0047377091287885 9.3466666305452e-20 -0.027453120491932" pbc="T T T"
O        4.63240527       5.00000000       4.73712155     -20.57566956      -0.00000000     -31.14322874
H        4.63240527       5.00000000       5.43712155      -1.31895194      -0.00000000      37.59279219
H        5.36759473       5.00000000       4.56287845      21.89462150       0.00000000      -6.44956344
3
Lattice="10.0 0.0 0.0 0.0 10.0 0.0 0.0 0.0 10.0" Properties=species:S:1:pos:R:3:forces:R:3 energy=-156.06832098667 free_energy=-156.06832098667 stress="-0.0099168162791138 -7.3308055222373e-20 0.0026481822586685 -7.3308055222373e-20 -0.00020813758194901 -3.9425706208775e-20 0.0026481822586685 -3.9425706208775e-20 0.0022566012448982" pbc="T T T"
O        4.60537625       5.00000000       4.57686088     -12.17922706      -0.00000000       6.18416515
H        4.60537625       5.00000000       5.61019421      -0.30292588       0.00000000      -2.82237372
H        5.39462375       5.00000000       4.38980579      12.48215294       0.00000000      -3.36179144
3
Lattice="10.0 0.0 0.0 0.0 10.0 0.0 0.0 0.0 10.0" Properties=species:S:1:pos:R:3:forces:R:3 energy=-154.90886128652 free_energy=-154.90886128652 stress="-0.015988810188506 -8.6973198985799e-20 0.004515981790801 -8.6973198985799e-20 -0.00021075146372009 -1.5233088410768e-19 0.004515981790801 -1.5233088410768e-19 0.0033121110779503" pbc="T T T"
O        4.63528499       5.00000000       4.55403910     -21.62831657      -0.00000000      10.38837115
H        4.63528499       5.00000000       5.64292799      -0.19897981       0.00000000      -4.19014668
H        5.36471501       5.00000000       4.35707201      21.82729638       0.00000000      -6.19822447
3
Lattice="10.0 0.0 0.0 0.0 10.0 0.0 0.0 0.0 10.0" Properties=species:S:1:pos:R:3:forces:R:3 energy=-156.70665058858 free_energy=-156.70665058858 stress="-0.0051554634835767 -1.7522468768982e-19 0.0015756408543255 -1.7522468768982e-19 -0.0002074553151382 3.8475261609707e-20 0.0015756408543255 3.8475261609707e-20 0.00043034473370291" pbc="T T T"
O        4.58165043       5.00000000       4.62407753      -5.87348798      -0.00000000       2.78319182
H        4.58165043       5.00000000       5.60185531      -0.20704747      -0.00000000      -0.89454804
H        5.41834957       5.00000000       4.39814469       6.08053545       0.00000000      -1.88864378
3
Lattice="10.0 0.0 0.0 0.0 10.0 0.0 0.0 0.0 10.0" Properties=species:S:1:pos:R:3:forces:R:3 energy=-156.93191540316 free_energy=-156.93191540316 stress="0.00074664408818083 2.107481686522e-19 -9.1125818441727e-05 2.107481686522e-19 -0.00020399432009485 4.3985400919894e-20 -9.1125818441727e-05 4.3985400919894e-20 -0.0018685421485463" pbc="T T T"
O        4.52801587       5.00000000       4.66633818       1.02134280       0.00000000      -2.13858519
H        4.52801587       5.00000000       5.58856040      -0.14500465      -0.00000000       2.04505306
H        5.47198413       5.00000000       4.41143960      -0.87633815      -0.00000000       0.09353213
3
Lattice="10.0 0.0 0.0 0.0 10.0 0.0 0.0 0.0 10.0" Properties=species:S:1:pos:R:3:forces:R:3 energy=-156.66096861348 free_energy=-156.66096861348 stress="0.0040310925384407 6.1439038264138e-20 -0.0012745771396351 6.1439038264138e-20 -0.00019685781750975 -4.5379157747771e-20 -0.0012745771396351 -4.5379157747771e-20 0.0011568752440336" pbc="T T T"
O        4.47664641       5.00000000       4.66118034       3.84001658       0.00000000      -0.40990977
H        4.47664641       5.00000000       5.63895812       0.09345182      -0.00000000      -0.80616362
H        5.52335359       5.00000000       4.36104188      -3.93346840      -0.00000000       1.21607339
3
Lattice="10.0 0.0 0.0 0.0 10.0 0.0 0.0 0.0 10.0" Properties=species:S:1:pos:R:3:forces:R:3 energy=-155.84806123829 free_energy=-155.84806123829 stress="0.0062398164076566 1.6175389884261e-20 -0.0016482979120303 1.6175389884261e-20 -0.00019913484617335 -1.0283126776882e-19 -0.0016482979120303 -1.0283126776882e-19 -0.005166858714083" pbc="T T T"
O        4.41955087       5.00000000       4.71858377       5.45938131      -0.00000000      -7.88039195
H        4.41955087       5.00000000       5.58525043      -0.01105706       0.00000000       6.46204487
H        5.58044913       5.00000000       4.41474957      -5.44832425      -0.00000000       1.41834709
3
Lattice="10.0 0.0 0.0 0.0 10.0 0.0 0.0 0.0 10.0" Properties=species:S:1:pos:R:3:forces:R:3 energy=-156.66162546826 free_energy=-156.66162546826 stress="0.00064128425311162 1.5595507276689e-19 -0.00010387960952814 1.5595507276689e-19 -0.00019543408889411 -1.7967335395496e-19 -0.00010387960952814 -1.7967335395496e-19 0.0044501535837543" pbc="T T T"
O        4.52428917       5.00000000       4.56830109       0.82070911      -0.00000000       3.96874683
H        4.52428917       5.00000000       5.65718998      -0.06274031       0.00000000      -4.07499668
H        5.47571083       5.00000000       4.34281002      -0.75796880      -0.00000000       0.10624985
3
Lattice="10.0 0.0 0.0 0.0 10.0 0.0 0.0 0.0 10.0" Properties=species:S:1:pos:R:3:forces:R:3 energy=-156.75285678479 free_energy=-156.75285678479 stress="0.0025632033520395 1.9099812280923e-20 -0.00075920482690228 1.9099812280923e-20 -0.00019597252057875 -1.2281080752274e-19 -0.00075920482690228 -1.2281080752274e-19 0.0030556704905365" pbc="T T T"
O        4.50119858       5.00000000       4.61802406       2.61367711      -0.00000000       2.00041151
H        4.50119858       5.00000000       5.65135740       0.04058090       0.00000000      -2.75942181
H        5.49880142       5.00000000       4.34864260      -2.65425802      -0.00000000       0.75901030
3
Lattice="10.0 0.0 0.0 0.0 10.0 0.0 0.0 0.0 10.0" Properties=species:S:1:pos:R:3:forces:R:3 energy=-152.78669865211 free_energy=-152.78669865211 stress="-0.0098104370581989 -1.4335063873213e-20 0.0031218784030953 -1.4335063873213e-20 -0.00023206362729365 1.5871950034226e-19 0.0031218784030953 1.5871950034226e-19 -0.027026515854328" pbc="T T T"
O        4.60537625       5.00000000       4.74352755     -11.17246061       0.00000000     -33.57685305
H        4.60537625       5.00000000       5.44352755      -1.16433832      -0.00000000      37.53777145
H        5.39462375       5.00000000       4.55647245      12.33679893      -0.00000000      -3.96091840
3
Lattice="10.0 0.0 0.0 0.0 10.0 0.0 0.0 0.0 10.0" Properties=species:S:1:pos:R:3:forces:R:3 energy=-155.41117790073 free_energy=-155.41117790073 stress="-0.0097248894666667 -1.1595180106422e-19 0.0030237715906928 -1.1595180106422e-19 -0.00022223225712721 -2.4936007996583e-19 0.0030237715906928 -2.4936007996583e-19 -0.01121710342489" pbc="T T T"
O        4.60687467       5.00000000       4.69408270     -11.56893877      -0.00000000      -9.00045366
H        4.60687467       5.00000000       5.50519381      -0.71077977       0.00000000      12.85208894
H        5.39312533       5.00000000       4.49480619      12.27971854       0.00000000      -3.85163528
3
Lattice="10.0 0.0 0.0 0.0 10.0 0.0 0.0 0.0 10.0" Properties=species:S:1:pos:R:3:forces:R:3 energy=-156.11190363417 free_energy=-156.11190363417 stress="0.00057624311116062 2.0781364489301e-19 -0.00030141780631169 2.0781364489301e-19 -0.00019293537648446 -4.3137718046092e-20 -0.00030141780631169 -4.3137718046092e-20 0.0068025219074145" pbc="T T T"
O        4.52801587       5.00000000       4.52744929       0.59409781       0.00000000       5.28638740
H        4.52801587       5.00000000       5.72744929       0.10149027      -0.00000000      -5.60287815
H        5.47198413       5.00000000       4.27255071      -0.69558808      -0.00000000       0.31649074
3
Lattice="10.0 0.0 0.0 0.0 10.0 0.0 0.0 0.0 10.0" Properties=species:S:1:pos:R:3:forces:R:3 energy=-155.56997208473 free_energy=-155.56997208473 stress="0.0060616745554381 -7.4339653128273e-20 -0.0019718042147896 -7.4339653128273e-20 -0.00018627119139227 -9.2163339695837e-20 -0.0019718042147896 -9.2163339695837e-20 0.0062192213437363" pbc="T T T"
O        4.42197747       5.00000000       4.58868135       5.08449502      -0.00000000       3.24593713
H        4.42197747       5.00000000       5.73312579       0.22660136       0.00000000      -4.94985808
H        5.57802253       5.00000000       4.26687421      -5.31109637       0.00000000       1.70392094
3
Lattice="10.0 0.0 0.0 0.0 10.0 0.0 0.0 0.0 10.0" Properties=species:S:1:pos:R:3:forces:R:3 energy=-155.87837037074 free_energy=-155.87837037074 stress="0.0041797129123774 -6.3410857337052e-20 -0.0010064603260813 -6.3410857337052e-20 -0.00020654309326549 -2.5079502537659e-19 -0.0010064603260813 -2.5079502537659e-19 -0.010195890215448" pbc="T T T"
O        4.47438130       5.00000000       4.73637661       4.24686264      -0.00000000     -13.86084422
H        4.47438130       5.00000000       5.54748772      -0.18363877       0.00000000      12.90493587
H        5.52561870       5.00000000       4.45251228      -4.06322387       0.00000000       0.95590834
3
Lattice="10.0 0.0 0.0 0.0 10.0 0.0 0.0 0.0 10.0" Properties=species:S:1:pos:R:3:forces:R:3 energy=-156.015198504 free_energy=-156.015198504 stress="0.0062118019529277 -9.7204903585701e-20 -0.0016328241787478 -9.7204903585701e-20 -0.00018945453028293 -9.2403607910346e-20 -0.0016328241787478 -9.2403607910346e-20 0.003178970618048" pbc="T T T"
O        4.41726397       5.00000000       4.62622740       5.31392451      -0.00000000       1.28593112
H        4.41726397       5.00000000       5.65956074       0.08430707       0.00000000      -2.68517293
H        5.58273603       5.00000000       4.34043926      -5.39823158      -0.00000000       1.39924181
3
Lattice="10.0 0.0 0.0 0.0 10.0 0.0 0.0 0.0 10.0" Properties=species:S:1:pos:R:3:forces:R:3 energy=-155.40656674774 free_energy=-155.40656674774 stress="-0.009770254655686 -2.7181214258775e-19 0.0029822143013552 -2.7181214258775e-19 -0.0002222011432828 -2.1980983099978e-19 0.0029822143013552 -2.1980983099978e-19 -0.011193108981589" pbc="T T T"
O        4.60611361       5.00000000       4.69103025     -11.56983925      -0.00000000      -9.07318797
H        4.60611361       5.00000000       5.50214136      -0.74379590       0.00000000      12.86463541
H        5.39388639       5.00000000       4.49785864      12.31363515       0.00000000      -3.79144745
3
Lattice="10.0 0.0 0.0 0.0 10.0 0.0 0.0 0.0 10.0" Properties=species:S:1:pos:R:3:forces:R:3 energy=-155.56790426124 free_energy=-155.56790426124 stress="0.0050840140975202 6.8472986296503e-20 -0.0017685966403538 6.8472986296503e-20 -0.00018658241158873 -9.832457329676e-20 -0.0017685966403538 -9.832457329676e-20 0.007204957741556" pbc="T T T"
O        4.44994470       5.00000000       4.55772582       4.45677517      -0.00000000       3.97015517
H        4.44994470       5.00000000       5.75772582       0.23706438      -0.00000000      -5.57600706
H        5.55005530       5.00000000       4.24227418      -4.69383954      -0.00000000       1.60585189
3
Lattice="10.0 0.0 0.0 0.0 10.0 0.0 0.0 0.0 10.0" Properties=species:S:1:pos:R:3:forces:R:3 energy=-155.18222778171 free_energy=-155.18222778171 stress="-0.0016940329513731 -1.6659119010767e-19 0.00090979741131457 -1.6659119010767e-19 -0.00021851046851048 -4.3624348435848e-20 0.00090979741131457 -4.3624348435848e-20 -0.017372542721042" pbc="T T T"
O        4.55215657       5.00000000       4.73203896      -1.12542122      -0.00000000     -21.66388296
H        4.55215657       5.00000000       5.48759452      -0.68037743       0.00000000      22.68370871
H        5.44784343       5.00000000       4.51240548       1.80579865       0.00000000      -1.01982574
3
Lattice="10.0 0.0 0.0 0.0 10.0 0.0 0.0 0.0 10.0" Properties=species:S:1:pos:R:3:forces:R:3 energy=-155.93897385866 free_energy=-155.93897385866 stress="-0.0096558731094593 -6.1779362003898e-20 0.0030245828905268 -6.1779362003898e-20 -0.00021810414094361 9.9926973722054e-20 0.0030245828905268 9.9926973722054e-20 -0.0063126373387306" pbc="T T T"
O        4.60846771       5.00000000       4.67239165     -11.74097254       0.00000000      -2.44038242
H        4.60846771       5.00000000       5.53905831      -0.50247690      -0.00000000       6.30889250
H        5.39153229       5.00000000       4.46094169      12.24344944       0.00000000      -3.86851008
3
Lattice="10.0 0.0 0.0 0.0 10.0 0.0 0.0 0.0 10.0" Properties=species:S:1:pos:R:3:forces:R:3 energy=-156.07887641493 free_energy=-156.07887641493 stress="0.0063059454877635 -1.0314545182645e-20 -0.0014060073020332 -1.0314545182645e-20 -0.00019471756019233 5.8825074788299e-20 -0.0014060073020332 5.8825074788299e-20 -0.001681441671145" pbc="T T T"
O        4.41511732       5.00000000       4.67272554       5.52459924      -0.00000000      -3.37328326
H        4.41511732       5.00000000       5.59494776      -0.06321729      -0.00000000       2.17303248
H        5.58488268       5.00000000       4.40505224      -5.46138195      -0.00000000       1.20025078
3
Lattice="10.0 0.0 0.0 0.0 10.0 0.0 0.0 0.0 10.0" Properties=species:S:1:pos:R:3:forces:R:3 energy=-153.2517699511 free_energy=-153.2517699511 stress="0.0042950847896814 -3.5378488200978e-20 -0.00059471544382139 -3.5378488200978e-20 -0.00021418794778823 2.062692257004e-20 -0.00059471544382139 2.062692257004e-20 -0.026114513273285" pbc="T T T"
O        4.46927312       5.00000000       4.77144437       4.72597802       0.00000000     -38.06625396
H        4.46927312       5.00000000       5.47144437      -0.58909820      -0.00000000      37.50745977
H        5.53072688       5.00000000       4.52855563      -4.13687982      -0.00000000       0.55879418
3
Lattice="10.0 0.0 0.0 0.0 10.0 0.0 0.0 0.0 10.0" Properties=species:S:1:pos:R:3:forces:R:3 energy=-155.10211553144 free_energy=-155.10211553144 stress="0.002765517030294 2.6766614902314e-20 -0.00039009285145968 2.6766614902314e-20 -0.0002125741171709 -1.7286663974613e-19 -0.00039009285145968 -1.7286663974613e-19 -0.017052515507038" pbc="T T T"
O        4.49916910       5.00000000       4.74915863       3.29565326      -0.00000000     -23.08295521
H        4.49916910       5.00000000       5.50471418      -0.44394000       0.00000000      22.69550951
H        5.50083090       5.00000000       4.49528582      -2.85171326      -0.00000000       0.38744570
3
Lattice="10.0 0.0 0.0 0.0 10.0 0.0 0.0 0.0 10.0" Properties=species:S:1:pos:R:3:forces:R:3 energy=-155.28519222152 free_energy=-155.28519222152 stress="0.0061980372536256 -1.1825993156093e-19 -0.0016478173788895 -1.1825993156093e-19 -0.00018310294080868 5.0154683582314e-20 -0.0016478173788895 5.0154683582314e-20 0.0070600133244106" pbc="T T T"
O        4.41617308       5.00000000       4.53836952       5.24257411      -0.00000000       4.14367336
H        4.41617308       5.00000000       5.73836952       0.13107187      -0.00000000      -5.55293297
H        5.58382692       5.00000000       4.26163048      -5.37364598       0.00000000       1.40925961
3
Lattice="10.0 0.0 0.0 0.0 10.0 0.0 0.0 0.0 10.0" Properties=species:S:1:pos:R:3:forces:R:3 energy=-156.40804405509 free_energy=-156.40804405509 stress="0.0052527840792031 1.3566816350178e-19 -0.0014564329561104 1.3566816350178e-19 -0.00019424861858217 -7.4708948562813e-20 -0.0014564329561104 -7.4708948562813e-20 0.0011299762432016" pbc="T T T"
O        4.44642351       5.00000000       4.65599501       4.76146687       0.00000000      -0.55102770
H        4.44642351       5.00000000       5.63377279       0.05840425      -0.00000000      -0.76277221
H        5.55357649       5.00000000       4.36622721      -4.81987112      -0.00000000       1.31379991
3
Lattice="10.0 0.0 0.0 0.0 10.0 0.0 0.0 0.0 10.0" Properties=species:S:1:pos:R:3:forces:R:3 energy=-151.84062024386 free_energy=-151.84062024386 stress="-0.024372906078466 -1.4304525251956e-19 0.0073742041603002 -1.4304525251956e-19 -0.00023717669737369 -1.2233029233786e-19 0.0073742041603002 -1.2233029233786e-19 -0.019189355294028" pbc="T T T"
O        4.66210227       5.00000000       4.71346433     -34.85277819      -0.00000000     -11.81492322
H        4.66210227       5.00000000       5.46901988      -1.08113006       0.00000000      22.73169137
H        5.33789773       5.00000000       4.53098012      35.93390826       0.00000000     -10.91676816
3
Lattice="10.0 0.0 0.0 0.0 10.0 0.0 0.0 0.0 10.0" Properties=species:S:1:pos:R:3:forces:R:3 energy=-154.94924943705 free_energy=-154.94924943705 stress="-0.016230780486196 -1.2287941660529e-19 0.0043534075027943 -1.2287941660529e-19 -0.00022242582865957 1.0741630106747e-19 0.0043534075027943 1.0741630106747e-19 -0.0065577727237402" pbc="T T T"
O        4.63174053       5.00000000       4.65093419     -21.18308506      -0.00000000      -0.45168989
H        4.63174053       5.00000000       5.51760085      -0.75575315      -0.00000000       6.36861450
H        5.36825947       5.00000000       4.48239915      21.93883822       0.00000000      -5.91692460
3
Lattice="10.0 0.0 0.0 0.0 10.0 0.0 0.0 0.0 10.0" Properties=species:S:1:pos:R:3:forces:R:3 energy=-154.43206300271 free_energy=-154.43206300271 stress="-0.016155230339488 -1.3338151643046e-19 0.0045340275643152 -1.3338151643046e-19 -0.00022700493304171 -2.8787256158187e-19 0.0045340275643152 -2.8787256158187e-19 -0.011561909693474" pbc="T T T"
O        4.63240527       5.00000000       4.68156600     -20.98188670      -0.00000000      -6.71623703
H        4.63240527       5.00000000       5.49267711      -0.89063472       0.00000000      12.88927812
H        5.36759473       5.00000000       4.50732289      21.87252143       0.00000000      -6.17304109
3
Lattice="10.0 0.0 0.0 0.0 10.0 0.0 0.0 0.0 10.0" Properties=species:S:1:pos:R:3:forces:R:3 energy=-156.70494705624 free_energy=-156.70494705624 stress="-0.0051798657772265 4.9927697078149e-20 0.0015664426918316 4.9927697078149e-20 -0.00020728919417325 1.5151593808434e-20 0.0015664426918316 1.5151593808434e-20 0.0004345505027099" pbc="T T T"
O        4.58078674       5.00000000       4.62082902      -5.86294530       0.00000000       2.75873788
H        4.58078674       5.00000000       5.59860680      -0.23416124      -0.00000000      -0.88495949
H        5.41921326       5.00000000       4.40139320       6.09710653      -0.00000000      -1.87377838
3
Lattice="10.0 0.0 0.0 0.0 10.0 0.0 0.0 0.0 10.0" Properties=species:S:1:pos:R:3:forces:R:3 energy=-154.41419454116 free_energy=-154.41419454116 stress="-0.016352328876187 -1.8573923366273e-19 0.0042653422485694 -1.8573923366273e-19 -0.00022708449221792 -2.3213185305236e-19 0.0042653422485694 -2.3213185305236e-19 -0.011431171227166" pbc="T T T"
O        4.63047757       5.00000000       4.67298886     -21.03306188      -0.00000000      -7.15247905
H        4.63047757       5.00000000       5.48409997      -0.99243105       0.00000000      12.92981294
H        5.36952243       5.00000000       4.51590003      22.02549293       0.00000000      -5.77733389
3
Lattice="10.0 0.0 0.0 0.0 10.0 0.0 0.0 0.0 10.0" Properties=species:S:1:pos:R:3:forces:R:3 energy=-155.8193012736 free_energy=-155.8193012736 stress="0.0060468274750409 -2.5646440241626e-20 -0.0020136399451732 -2.5646440241626e-20 -0.00018855398774251 -1.0157961512227e-19 -0.0020136399451732 -1.0157961512227e-19 0.0049822710884994" pbc="T T T"
O        4.42324298       5.00000000       4.62093797       5.07772252      -0.00000000       2.29712984
H        4.42324298       5.00000000       5.70982686       0.23314793       0.00000000      -4.04115228
H        5.57675702       5.00000000       4.29017314      -5.31087046       0.00000000       1.74402244
3
Lattice="10.0 0.0 0.0 0.0 10.0 0.0 0.0 0.0 10.0" Properties=species:S:1:pos:R:3:forces:R:3 energy=-156.66210025854 free_energy=-156.66210025854 stress="0.00063256189362627 1.5317858214169e-19 -0.00023378408016235 1.5317858214169e-19 -0.00019636998646427 -1.947964540041e-19 -0.00023378408016235 -1.947964540041e-19 0.0045254049838652" pbc="T T T"
O        4.52801587       5.00000000       4.58300485       0.71850384       0.00000000       3.85738061
H        4.52801587       5.00000000       5.67189374       0.03622149       0.00000000      -4.10212625
H        5.47198413       5.00000000       4.32810626      -0.75472532      -0.00000000       0.24474564
3
Lattice="10.0 0.0 0.0 0.0 10.0 0.0 0.0 0.0 10.0" Properties=species:S:1:pos:R:3:forces:R:3 energy=-156.59688178424 free_energy=-156.59688178424 stress="-0.0052386576052632 -8.8538733760738e-20 0.0015003859278052 -8.8538733760738e-20 -0.00020453959012624 -7.7661093904564e-20 0.0015003859278052 -7.7661093904564e-20 0.0025108246574969" pbc="T T T"
O        4.57994828       5.00000000       4.58979613      -5.97109232      -0.00000000       4.61020902
H        4.57994828       5.00000000       5.62312946      -0.18409458       0.00000000      -2.81873943
H        5.42005172       5.00000000       4.37687054       6.15518690       0.00000000      -1.79146960
3
Lattice="10.0 0.0 0.0 0.0 10.0 0.0 0.0 0.0 10.0" Properties=species:S:1:pos:R:3:forces:R:3 energy=-156.55873436271 free_energy=-156.55873436271 stress="0.0025044288732011 -1.9926542233185e-20 -0.000887271248557 -1.9926542233185e-20 -0.00019433039995274 -1.3465075833745e-19 -0.000887271248557 -1.3465075833745e-19 0.0047127970700716" pbc="T T T"
O        4.50334812       5.00000000       4.59796819       2.47544275      -0.00000000       3.20085260
H        4.50334812       5.00000000       5.68685708       0.13069548       0.00000000      -4.09212444
H        5.49665188       5.00000000       4.31314292      -2.60613822      -0.00000000       0.89127184
3
Lattice="10.0 0.0 0.0 0.0 10.0 0.0 0.0 0.0 10.0" Properties=species:S:1:pos:R:3:forces:R:3 energy=-154.45284562399 free_energy=-154.45284562399 stress="-0.0096172854513288 -8.3086682960976e-20 0.0031930702290092 -8.3086682960976e-20 -0.00022699045528438 -1.6340087671611e-19 0.0031930702290092 -1.6340087671611e-19 -0.017995191066715" pbc="T T T"
O        4.60846771       5.00000000       4.72794720     -11.37439855      -0.00000000     -18.57252070
H        4.60846771       5.00000000       5.48350276      -0.81539208       0.00000000      22.65581533
H        5.39153229       5.00000000       4.51649724      12.18979063       0.00000000      -4.08329463
3
Lattice="10.0 0.0 0.0 0.0 10.0 0.0 0.0 0.0 10.0" Properties=species:S:1:pos:R:3:forces:R:3 energy=-156.44929924219 free_energy=-156.44929924219 stress="-0.0051622428380322 4.6363751660229e-20 0.001681613565561 4.6363751660229e-20 -0.00021371323344403 1.0580878119661e-19 0.001681613565561 1.0580878119661e-19 -0.0059478383320442" pbc="T T T"
O        4.57913509       5.00000000       4.66986794      -5.55146686       0.00000000      -4.35312118
H        4.57913509       5.00000000       5.53653461      -0.49909658      -0.00000000       6.35620368
H        5.42086491       5.00000000       4.46346539       6.05056345      -0.00000000      -2.00308250
3
Lattice="10.0 0.0 0.0 0.0 10.0 0.0 0.0 0.0 10.0" Properties=species:S:1:pos:R:3:forces:R:3 energy=-154.3416846734 free_energy=-154.3416846734 stress="-0.016416307585956 -1.672665494078e-19 0.0038602046803249 -1.672665494078e-19 -0.00020625827762154 -1.263551258418e-20 0.0038602046803249 -1.263551258418e-20 0.0058559697091032" pbc="T T T"
O        4.63109795       5.00000000       4.48140842     -21.95191763      -0.00000000      10.86261780
H        4.63109795       5.00000000       5.68140842      -0.20972237      -0.00000000      -5.62302216
H        5.36890205       5.00000000       4.31859158      22.16164000       0.00000000      -5.23959564
3
Lattice="10.0 0.0 0.0 0.0 10.0 0.0 0.0 0.0 10.0" Properties=species:S:1:pos:R:3:forces:R:3 energy=-156.3096519413 free_energy=-156.3096519413 stress="0.0053083691994942 9.2377788415494e-20 -0.0012328686102317 9.2377788415494e-20 -0.00019063571174897 -1.0074914787961e-19 -0.0012328686102317 -1.0074914787961e-19 0.0030574152228132" pbc="T T T"
O        4.44219522       5.00000000       4.61097384       4.83412691       0.00000000       1.58310445
H        4.44219522       5.00000000       5.64430717      -0.00277588      -0.00000000      -2.68634028
H        5.55780478       5.00000000       4.35569283      -4.83135103      -0.00000000       1.10323584
3
Lattice="10.0 0.0 0.0 0.0 10.0 0.0 0.0 0.0 10.0" Properties=species:S:1:pos:R:3:forces:R:3 energy=-156.60047593943 free_energy=-156.60047593943 stress="-0.0051677041524744 -1.6933036386481e-19 0.0015299285733355 -1.6933036386481e-19 -0.00020510958834757 -4.435950120572e-20 0.0015299285733355 -4.435950120572e-20 0.0024976739811472" pbc="T T T"
O        4.58253929       5.00000000       4.59954147      -6.00082318      -0.00000000       4.68269429
H        4.58253929       5.00000000       5.63287480      -0.10756856      -0.00000000      -2.84471016
H        5.41746071       5.00000000       4.36712520       6.10839174       0.00000000      -1.83798413
3
Lattice="10.0 0.0 0.0 0.0 10.0 0.0 0.0 0.0 10.0" Properties=species:S:1:pos:R:3:forces:R:3 energy=-155.20004947395 free_energy=-155.20004947395 stress="0.00084074855422662 9.5595996943424e-20 0.00027421165362382 9.5595996943424e-20 -0.00021502024177484 -2.3549204579651e-19 0.00027421165362382 -2.3549204579651e-19 -0.017233218265979" pbc="T T T"
O        4.52342893       5.00000000       4.73127431       1.61491275      -0.00000000     -22.42272904
H        4.52342893       5.00000000       5.48682986      -0.64439636       0.00000000      22.71338277
H        5.47657107       5.00000000       4.51317014      -0.97051640      -0.00000000      -0.29065373
3
Lattice="10.0 0.0 0.0 0.0 10.0 0.0 0.0 0.0 10.0" Properties=species:S:1:pos:R:3:forces:R:3 energy=-155.61421451524 free_energy=-155.61421451524 stress="0.0054217468171691 -3.7801686014553e-20 -0.0010414272754374 -3.7801686014553e-20 -0.00020376302642772 -2.5588878694888e-19 -0.0010414272754374 -2.5588878694888e-19 -0.01028519131652" pbc="T T T"
O        4.44219522       5.00000000       4.72208495       5.21262463      -0.00000000     -13.90148700
H        4.44219522       5.00000000       5.53319606      -0.27286426       0.00000000      12.96959091
H        5.55780478       5.00000000       4.46680394      -4.93976037      -0.00000000       0.93189609
3
Lattice="10.0 0.0 0.0 0.0 10.0 0.0 0.0 0.0 10.0" Properties=species:S:1:pos:R:3:forces:R:3 energy=-153.44467128227 free_energy=-153.44467128227 stress="0.0028015659691559 4.7382212337574e-20 -0.00013182012824718 4.7382212337574e-20 -0.00021650148456567 7.9426009104783e-20 -0.00013182012824718 7.9426009104783e-20 -0.026226348632436" pbc="T T T"
O        4.49547220       5.00000000       4.76133798       3.59554758       0.00000000     -37.63896381
H        4.49547220       5.00000000       5.46133798      -0.72696420      -0.00000000      37.51032630
H        5.50452780       5.00000000       4.53866202      -2.86858338      -0.00000000       0.12863751
3
Lattice="10.0 0.0 0.0 0.0 10.0 0.0 0.0 0.0 10.0" Properties=species:S:1:pos:R:3:forces:R:3 energy=-153.45958725667 free_energy=-153.45958725667 stress="-0.02462433049831 -8.4349425871734e-20 0.0066287572762986 -8.4349425871734e-20 -0.00021696784811715 -5.7613230987733e-20 0.0066287572762986 -5.7613230987733e-20 0.0012418196063737" pbc="T T T"
O        4.66072745       5.00000000       4.56932251     -35.78538475      -0.00000000      12.64487636
H        4.66072745       5.00000000       5.60265585      -0.39297600       0.00000000      -2.86935976
H        5.33927255       5.00000000       4.39734415      36.17836075       0.00000000      -9.77551660
3
Lattice="10.0 0.0 0.0 0.0 10.0 0.0 0.0 0.0 10.0" Properties=species:S:1:pos:R:3:forces:R:3 energy=-156.6930631538 free_energy=-156.6930631538 stress="0.00077693911841984 1.3889890490245e-19 0.00017670169182209 1.3889890490245e-19 -0.00020653297249145 1.512450672511e-20 0.00017670169182209 1.512450672511e-20 -0.0056279717702181" pbc="T T T"
O        4.52259735       5.00000000       4.67201874       1.32231577       0.00000000      -6.23778866
H        4.52259735       5.00000000       5.53868540      -0.42282183      -0.00000000       6.42586274
H        5.47740265       5.00000000       4.46131460      -0.89949394      -0.00000000      -0.18807408
3
Lattice="10.0 0.0 0.0 0.0 10.0 0.0 0.0 0.0 10.0" Properties=species:S:1:pos:R:3:forces:R:3 energy=-153.33961984348 free_energy=-153.33961984348 stress="-0.0049573292499972 4.0820771630604e-20 0.0019581933293835 4.0820771630604e-20 -0.00022728713391971 1.4834349795697e-19 0.0019581933293835 1.4834349795697e-19 -0.026765908340073" pbc="T T T"
O        4.58345327       5.00000000       4.76944285      -5.06397801       0.00000000     -35.07972843
H        4.58345327       5.00000000       5.46944285      -0.79894781      -0.00000000      37.43518575
H        5.41654673       5.00000000       4.53055715       5.86292582      -0.00000000      -2.35545732
3
Lattice="10.0 0.0 0.0 0.0 10.0 0.0 0.0 0.0 10.0" Properties=species:S:1:pos:R:3:forces:R:3 energy=-154.44793818802 free_energy=-154.44793818802 stress="-0.0096653550017444 -2.9613236837904e-19 0.0031525892413681 -2.9613236837904e-19 -0.00022698068362695 -1.7400265029051e-19 0.0031525892413681 -1.7400265029051e-19 -0.017968718377779" pbc="T T T"
O        4.60765938       5.00000000       4.72490693     -11.37602400      -0.00000000     -18.64544393
H        4.60765938       5.00000000       5.48046248      -0.84997982       0.00000000      22.66874528
H        5.39234062       5.00000000       4.51953752      12.22600381       0.00000000      -4.02330135
3
Lattice="10.0 0.0 0.0 0.0 10.0 0.0 0.0 0.0 10.0" Properties=species:S:1:pos:R:3:forces:R:3 energy=-156.12135537366 free_energy=-156.12135537366 stress="0.0040821658801212 -7.589346996091e-20 -0.00093224850263821 -7.589346996091e-20 -0.0001881014346396 -1.129792544558e-19 -0.00093224850263821 -1.129792544558e-19 0.0058509523944557" pbc="T T T"
O        4.46834705       5.00000000       4.54510167       3.90566611      -0.00000000       4.06180374
H        4.46834705       5.00000000       5.68954612       0.00993597       0.00000000      -4.93647929
H        5.53165295       5.00000000       4.31045388      -3.91560208       0.00000000       0.87467555
3
Lattice="10.0 0.0 0.0 0.0 10.0 0.0 0.0 0.0 10.0" Properties=species:S:1:pos:R:3:forces:R:3 energy=-155.82434645757 free_energy=-155.82434645757 stress="0.0061377118477443 -8.3187566482273e-20 -0.001807173909175 -8.3187566482273e-20 -0.00018768763507817 -1.0932300826238e-19 -0.001807173909175 -1.0932300826238e-19 0.0048626523810982" pbc="T T T"
O        4.41955087       5.00000000       4.60747266       5.19238000      -0.00000000       2.47179949
H        4.41955087       5.00000000       5.69636155       0.16254735       0.00000000      -4.02676061
H        5.58044913       5.00000000       4.30363845      -5.35492735       0.00000000       1.55496112
3
Lattice="10.0 0.0 0.0 0.0 10.0 0.0 0.0 0.0 10.0" Properties=species:S:1:pos:R:3:forces:R:3 energy=-152.70130538648 free_energy=-152.70130538648 stress="-0.024778003926597 -1.765595830497e-19 0.0062986898534064 -1.765595830497e-19 -0.0002110450522003 7.8579333141393e-20 0.0062986898534064 7.8579333141393e-20 0.0051992585183408" pbc="T T T"
O        4.66007065       5.00000000       4.48335487     -36.14066906      -0.00000000      14.92601486
H        4.66007065       5.00000000       5.68335487      -0.19999901      -0.00000000      -5.65382758
H        5.33992935       5.00000000       4.31664513      36.34066807       0.00000000      -9.27218728
3
Lattice="10.0 0.0 0.0 0.0 10.0 0.0 0.0 0.0 10.0" Properties=species:S:1:pos:R:3:forces:R:3 energy=-155.18613269444 free_energy=-155.18613269444 stress="-0.0016797228876871 -1.4645453510472e-19 0.00089312578216474 -1.4645453510472e-19 -0.00021857730664294 -9.3535088845501e-20 0.00089312578216474 -9.3535088845501e-20 -0.017366389768073" pbc="T T T"
O        4.55302188       5.00000000       4.73550955      -1.14787800      -0.00000000     -21.66929626
H        4.55302188       5.00000000       5.49106511      -0.64554424       0.00000000      22.67244987
H        5.44697812       5.00000000       4.50893489       1.79342224       0.00000000      -1.00315361
3
Lattice="10.0 0.0 0.0 0.0 10.0 0.0 0.0 0.0 10.0" Properties=species:S:1:pos:R:3:forces:R:3 energy=-153.26833907326 free_energy=-153.26833907326 stress="-0.024334718539786 -1.5236511034648e-19 0.0070176231631756 -1.5236511034648e-19 -0.00021511027329171 -1.1117280521229e-19 0.0070176231631756 -1.1117280521229e-19 0.002596433643264" pbc="T T T"
O        4.66282019       5.00000000       4.54941597     -35.73241799      -0.00000000      14.62528438
H        4.66282019       5.00000000       5.63830486      -0.24247629       0.00000000      -4.21219364
H        5.33717981       5.00000000       4.36169514      35.97489428       0.00000000     -10.41309074
3
Lattice="10.0 0.0 0.0 0.0 10.0 0.0 0.0 0.0 10.0" Properties=species:S:1:pos:R:3:forces:R:3 energy=-155.32165049182 free_energy=-155.32165049182 stress="-0.0098758481113391 -1.0647282879485e-19 0.0026338790738816 -1.0647282879485e-19 -0.000203075470476 7.0779330944789e-20 0.0026338790738816 7.0779330944789e-20 0.0060614964676782" pbc="T T T"
O        4.60765938       5.00000000       4.50268471     -12.44716357       0.00000000       9.00844801
H        4.60765938       5.00000000       5.70268471      -0.05567408      -0.00000000      -5.64492094
H        5.39234062       5.00000000       4.29731529      12.50283764       0.00000000      -3.36352707
3
Lattice="10.0 0.0 0.0 0.0 10.0 0.0 0.0 0.0 10.0" Properties=species:S:1:pos:R:3:forces:R:3 energy=-156.37415428218 free_energy=-156.37415428218 stress="-0.0019403516620327 1.5112324976173e-19 0.0005274555128317 1.5112324976173e-19 -0.00019638625310005 -2.0944590158881e-19 0.0005274555128317 -2.0944590158881e-19 0.0055695793079138" pbc="T T T"
O        4.55050683       5.00000000       4.53063372      -1.98793524       0.00000000       5.57906107
H        4.55050683       5.00000000       5.67507817      -0.08835601       0.00000000      -4.98816785
H        5.44949317       5.00000000       4.32492183       2.07629125      -0.00000000      -0.59089322
3
Lattice="10.0 0.0 0.0 0.0 10.0 0.0 0.0 0.0 10.0" Properties=species:S:1:pos:R:3:forces:R:3 energy=-152.79302343733 free_energy=-152.79302343733 stress="-0.024679969169314 -9.2961915466682e-20 0.0068204375280159 -9.2961915466682e-20 -0.00023202712461909 -1.9803017200257e-19 0.0068204375280159 -1.9803017200257e-19 -0.012176371031361" pbc="T T T"
O        4.66007065       5.00000000       4.67779932     -35.20371792      -0.00000000      -2.86815696
H        4.66007065       5.00000000       5.48891043      -0.97263719       0.00000000      12.90554361
H        5.33992935       5.00000000       4.51108957      36.17635511       0.00000000     -10.03738665
3
Lattice="10.0 0.0 0.0 0.0 10.0 0.0 0.0 0.0 10.0" Properties=species:S:1:pos:R:3:forces:R:3 energy=-154.97225399321 free_energy=-154.97225399321 stress="-0.015887259347555 -1.4387949800992e-19 0.0047933413780009 -1.4387949800992e-19 -0.00022259343781823 -2.3034025865663e-19 0.0047933413780009 -2.3034025865663e-19 -0.0067938794437434" pbc="T T T"
O        4.63528499       5.00000000       4.66515021     -21.07747656      -0.00000000       0.27220009
H        4.63528499       5.00000000       5.53181688      -0.60277746       0.00000000       6.30525509
H        5.36471501       5.00000000       4.46818312      21.68025402       0.00000000      -6.57745517
3
Lattice="10.0 0.0 0.0 0.0 10.0 0.0 0.0 0.0 10.0" Properties=species:S:1:pos:R:3:forces:R:3 energy=-155.82670661441 free_energy=-155.82670661441 stress="0.0061927177931977 -1.3282482943556e-20 -0.0016658024053023 -1.3282482943556e-20 -0.00018714168297614 -1.349975434187e-19 -0.0016658024053023 -1.349975434187e-19 0.0047872931082469" pbc="T T T"
O        4.41726397       5.00000000       4.59844963       5.26613440      -0.00000000       2.58957220
H        4.41726397       5.00000000       5.68733852       0.11469750       0.00000000      -4.01705281
H        5.58273603       5.00000000       4.31266148      -5.38083190      -0.00000000       1.42748061
3
Lattice="10.0 0.0 0.0 0.0 10.0 0.0 0.0 0.0 10.0" Properties=species:S:1:pos:R:3:forces:R:3 energy=-156.40839063476 free_energy=-156.40839063476 stress="0.0052747529214183 -2.6461905765266e-20 -0.0013912711192165 -2.6461905765266e-20 -0.00019399927666371 -7.8138758944662e-20 -0.0013912711192165 -7.8138758944662e-20 0.0010938143813632" pbc="T T T"
O        4.44531631       5.00000000       4.65169659       4.79859374       0.00000000      -0.49666477
H        4.44531631       5.00000000       5.62947437       0.03132651      -0.00000000      -0.75573757
H        5.55468369       5.00000000       4.37052563      -4.82992025      -0.00000000       1.25240234
3
Lattice="10.0 0.0 0.0 0.0 10.0 0.0 0.0 0.0 10.0" Properties=species:S:1:pos:R:3:forces:R:3 energy=-156.85512459003 free_energy=-156.85512459003 stress="0.00067177941220412 1.0029497709279e-19 -0.00012640379717869 1.0029497709279e-19 -0.0001980696795558 -1.3373198937883e-19 -0.00012640379717869 -1.3373198937883e-19 0.0028846484983286" pbc="T T T"
O        4.52609549       5.00000000       4.60344520       0.85656686       0.00000000       2.63884549
H        4.52609549       5.00000000       5.63677854      -0.06346880       0.00000000      -2.76925379
H        5.47390451       5.00000000       4.36322146      -0.79309806      -0.00000000       0.13040830
3
Lattice="10.0 0.0 0.0 0.0 10.0 0.0 0.0 0.0 10.0" Properties=species:S:1:pos:R:3:forces:R:3 energy=-156.3091851988 free_energy=-156.3091851988 stress="0.0053443994024527 5.214847394175e-20 -0.0010976849836901 5.214847394175e-20 -0.00019017332444743 -1.0544558951515e-19 -0.0010976849836901 -1.0544558951515e-19 0.0029924760921241" pbc="T T T"
O        4.44028221       5.00000000       4.60230502       4.90252288      -0.00000000       1.69529654
H        4.44028221       5.00000000       5.63563836      -0.05573558       0.00000000      -2.67392705
H        5.55971779       5.00000000       4.36436164      -4.84678731      -0.00000000       0.97863051
3
Lattice="10.0 0.0 0.0 0.0 10.0 0.0 0.0 0.0 10.0" Properties=species:S:1:pos:R:3:forces:R:3 energy=-156.07760322569 free_energy=-156.07760322569 stress="0.0027104622460785 3.2070941122929e-20 -0.0005961262971847 3.2070941122929e-20 -0.00020887260088531 -2.2480390261882e-19 -0.0005961262971847 -2.2480390261882e-19 -0.01027833952488" pbc="T T T"
O        4.50225838       5.00000000       4.73300029       3.04022984      -0.00000000     -13.47030222
H        4.50225838       5.00000000       5.54411141      -0.22799832       0.00000000      12.87346907
H        5.49774162       5.00000000       4.45588859      -2.81223152      -0.00000000       0.59683315
3
Lattice="10.0 0.0 0.0 0.0 10.0 0.0 0.0 0.0 10.0" Properties=species:S:1:pos:R:3:forces:R:3 energy=-155.61629157081 free_energy=-155.61629157081 stress="-0.00997168020334 -7.6884016809534e-20 0.0025404999762139 -7.6884016809534e-20 -0.00020401571667772 -1.8794700975527e-19 0.0025404999762139 -1.8794700975527e-19 0.0051252203029038" pbc="T T T"
O        4.60537625       5.00000000       4.52130533     -12.38405286      -0.00000000       8.25600358
H        4.60537625       5.00000000       5.66574977      -0.16825901       0.00000000      -5.03037267
H        5.39462375       5.00000000       4.33425023      12.55231187       0.00000000      -3.22563091
3
Lattice="10.0 0.0 0.0 0.0 10.0 0.0 0.0 0.0 10.0" Properties=species:S:1:pos:R:3:forces:R:3 energy=-156.70068096048 free_energy=-156.70068096048 stress="0.00078419354922246 1.3073598989846e-19 7.0998849377306e-05 1.3073598989846e-19 -0.0002069451048057 4.6592836961603e-20 7.0998849377306e-05 4.6592836961603e-20 -0.0055742110722463" pbc="T T T"
O        4.52517805       5.00000000       4.68309887       1.23957935       0.00000000      -6.31813009
H        4.52517805       5.00000000       5.54976554      -0.32782012      -0.00000000       6.39589654
H        5.47482195       5.00000000       4.45023446      -0.91175923      -0.00000000      -0.07776645
3
Lattice="10.0 0.0 0.0 0.0 10.0 0.0 0.0 0.0 10.0" Properties=species:S:1:pos:R:3:forces:R:3 energy=-156.66090562183 free_energy=-156.66090562183 stress="0.0041457836558318 -2.8009485758691e-20 -0.00087351816272992 -2.8009485758691e-20 -0.0001952041870532 3.914017570932e-20 -0.00087351816272992 3.914017570932e-20 0.00093123324492405" pbc="T T T"
O        4.46927312       5.00000000       4.63255548       4.08450338       0.00000000      -0.06765453
H        4.46927312       5.00000000       5.61033326      -0.09856649      -0.00000000      -0.75343404
H        5.53072688       5.00000000       4.38966674      -3.98593689       0.00000000       0.82108857
3
Lattice="10.0 0.0 0.0 0.0 10.0 0.0 0.0 0.0 10.0" Properties=species:S:1:pos:R:3:forces:R:3 energy=-153.30448924575 free_energy=-153.30448924575 stress="-0.024876194215979 -1.5090034988689e-19 0.0064154088446325 -1.5090034988689e-19 -0.00022726637483783 7.0029080136639e-20 0.0064154088446325 7.0029080136639e-20 -0.0070478211896722" pbc="T T T"
O        4.65881844       5.00000000       4.64473804     -35.48116271       0.00000000       3.02419358
H        4.65881844       5.00000000       5.51140471      -0.85477421      -0.00000000       6.38313440
H        5.34118156       5.00000000       4.48859529      36.33593692       0.00000000      -9.40732798
3
Lattice="10.0 0.0 0.0 0.0 10.0 0.0 0.0 0.0 10.0" Properties=species:S:1:pos:R:3:forces:R:3 energy=-156.14110447452 free_energy=-156.14110447452 stress="-0.0053868442971918 3.1528035600637e-20 0.001357952348791 3.1528035600637e-20 -0.00019970600212981 -1.7379145720734e-19 0.001357952348791 -1.7379145720734e-19 0.0053942628408216" pbc="T T T"
O        4.57684765       5.00000000       4.52115802      -6.12384097       0.00000000       6.60890072
H        4.57684765       5.00000000       5.66560247      -0.16109637       0.00000000      -4.99877432
H        5.42315235       5.00000000       4.33439753       6.28493734      -0.00000000      -1.61012639
3
Lattice="10.0 0.0 0.0 0.0 10.0 0.0 0.0 0.0 10.0" Properties=species:S:1:pos:R:3:forces:R:3 energy=-155.31787678567 free_energy=-155.31787678567 stress="-0.01003259098159 -1.4899447325458e-19 0.0024478279567957 -1.4899447325458e-19 -0.00020222350979865 -2.4710383894973e-20 0.0024478279567957 -2.4710383894973e-20 0.0061517469547001" pbc="T T T"
O        4.60466263       5.00000000       4.49046366     -12.46747317      -0.00000000       8.72121164
H        4.60466263       5.00000000       5.69046366      -0.13920694      -0.00000000      -5.61848829
H        5.39533737       5.00000000       4.30953634      12.60668011       0.00000000      -3.10272336
3
Lattice="10.0 0.0 0.0 0.0 10.0 0.0 0.0 0.0 10.0" Properties=species:S:1:pos:R:3:forces:R:3 energy=-156.11407585923 free_energy=-156.11407585923 stress="0.00059210181498654 6.7827840056235e-20 -0.00014616622428932 6.7827840056235e-20 -0.00019166096931948 -9.5100768922154e-20 -0.00014616622428932 -9.5100768922154e-20 0.0067152309669824" pbc="T T T"
O        4.52342893       5.00000000       4.50905208       0.71288614      -0.00000000       5.42704472
H        4.52342893       5.00000000       5.70905208      -0.00760248      -0.00000000      -5.57753021
H        5.47657107       5.00000000       4.29094792      -0.70528365      -0.00000000       0.15048549
3
Lattice="10.0 0.0 0.0 0.0 10.0 0.0 0.0 0.0 10.0" Properties=species:S:1:pos:R:3:forces:R:3 energy=-156.05997022786 free_energy=-156.05997022786 stress="-0.010034058448221 -1.7145503174092e-20 0.0025135480109592 -1.7145503174092e-20 -0.0002077373522168 -3.6313743745003e-20 0.0025135480109592 -3.6313743745003e-20 0.0023140401052618" pbc="T T T"
O        4.60330681       5.00000000       4.56765307     -12.18370664       0.00000000       5.96879693
H        4.60330681       5.00000000       5.60098641      -0.38131400      -0.00000000      -2.79422857
H        5.39669319       5.00000000       4.39901359      12.56502064       0.00000000      -3.17456836
3
Lattice="10.0 0.0 0.0 0.0 10.0 0.0 0.0 0.0 10.0" Properties=species:S:1:pos:R:3:forces:R:3 energy=-156.14581071629 free_energy=-156.14581071629 stress="0.0052971134509944 1.447751618783e-19 -0.0014268288172768 1.447751618783e-19 -0.00020092249644268 -9.4361098116852e-22 -0.0014268288172768 -9.4361098116852e-22 -0.0051903223401343" pbc="T T T"
O        4.44756402       5.00000000       4.71584027       4.90753019       0.00000000      -7.72565389
H        4.44756402       5.00000000       5.58250694      -0.03409813      -0.00000000       6.43576999
H        5.55243598       5.00000000       4.41749306      -4.87343206      -0.00000000       1.28988390
3
Lattice="10.0 0.0 0.0 0.0 10.0 0.0 0.0 0.0 10.0" Properties=species:S:1:pos:R:3:forces:R:3 energy=-155.82896299829 free_energy=-155.82896299829 stress="0.0062887423387225 -3.7126866564886e-23 -0.0013745879395988 -3.7126866564886e-23 -0.00018612591368811 -1.3710263272784e-19 -0.0013745879395988 -1.3710263272784e-19 0.0046454185116464" pbc="T T T"
O        4.41311144       5.00000000       4.58030257       5.40693003      -0.00000000       2.82820076
H        4.41311144       5.00000000       5.66919146       0.01714131       0.00000000      -3.99732567
H        5.58688856       5.00000000       4.33080854      -5.42407135      -0.00000000       1.16912491
3
Lattice="10.0 0.0 0.0 0.0 10.0 0.0 0.0 0.0 10.0" Properties=species:S:1:pos:R:3:forces:R:3 energy=-156.13617374273 free_energy=-156.13617374273 stress="-0.0017749923625286 -2.0640684002955e-19 0.00090401167765121 -2.0640684002955e-19 -0.00021378003899863 -2.0179697894443e-19 0.00090401167765121 -2.0179697894443e-19 -0.010696579980807" pbc="T T T"
O        4.54896527       5.00000000       4.69031484      -1.21443944      -0.00000000     -11.91563086
H        4.54896527       5.00000000       5.50142595      -0.66919103       0.00000000      12.92189281
H        5.45103473       5.00000000       4.49857405       1.88363047       0.00000000      -1.00626194
3
Lattice="10.0 0.0 0.0 0.0 10.0 0.0 0.0 0.0 10.0" Properties=species:S:1:pos:R:3:forces:R:3 energy=-156.39993690065 free_energy=-156.39993690065 stress="0.0041863120211856 7.0827889090383e-21 -0.00089003132565097 7.0827889090383e-21 -0.00020212031168534 3.3744693786911e-20 -0.00089003132565097 3.3744693786911e-20 -0.0053678499255852" pbc="T T T"
O        4.47122101       5.00000000       4.69632980       4.22752936       0.00000000      -7.28133021
H        4.47122101       5.00000000       5.56299647      -0.18477549      -0.00000000       6.44139936
H        5.52877899       5.00000000       4.43700353      -4.04275387       0.00000000       0.83993085
3
Lattice="10.0 0.0 0.0 0.0 10.0 0.0 0.0 0.0 10.0" Properties=species:S:1:pos:R:3:forces:R:3 energy=-154.3502299334 free_energy=-154.3502299334 stress="0.0062496550443256 -6.3408611920429e-20 -0.0016817357784041 -6.3408611920429e-20 -0.00020753590044413 -9.0243433576862e-20 -0.0016817357784041 -9.0243433576862e-20 -0.016691133055127" pbc="T T T"
O        4.42197747       5.00000000       4.78312579       5.59666051      -0.00000000     -24.16525104
H        4.42197747       5.00000000       5.53868135      -0.11270923       0.00000000      22.71179752
H        5.57802253       5.00000000       4.46131865      -5.48395128       0.00000000       1.45345351
3
Lattice="10.0 0.0 0.0 0.0 10.0 0.0 0.0 0.0 10.0" Properties=species:S:1:pos:R:3:forces:R:3 energy=-156.40853015718 free_energy=-156.40853015718 stress="0.0052956808195985 -5.7301590080692e-21 -0.0013254465375601 -5.7301590080692e-21 -0.00019375654109644 4.44213494509e-20 -0.0013254465375601 4.44213494509e-20 0.0010583653057633" pbc="T T T"
O        4.44424249       5.00000000       4.64738972       4.83523688       0.00000000      -0.44200377
H        4.44424249       5.00000000       5.62516749       0.00405116      -0.00000000      -0.74872094
H        5.55575751       5.00000000       4.37483251      -4.83928804      -0.00000000       1.19072470
3
Lattice="10.0 0.0 0.0 0.0 10.0 0.0 0.0 0.0 10.0" Properties=species:S:1:pos:R:3:forces:R:3 energy=-156.68333986392 free_energy=-156.68333986392 stress="-0.0017057854473246 -1.946062292249e-19 0.00070183197115743 -1.946062292249e-19 -0.00021060414793247 9.6639992652531e-20 0.00070183197115743 9.6639992652531e-20 -0.0056947543712549" pbc="T T T"
O        4.55577898       5.00000000       4.69032404      -1.54969545       0.00000000      -5.53722549
H        4.55577898       5.00000000       5.55699070      -0.28683989      -0.00000000       6.33141381
H        5.44422102       5.00000000       4.44300930       1.83653534       0.00000000      -0.79418832
3
Lattice="10.0 0.0 0.0 0.0 10.0 0.0 0.0 0.0 10.0" Properties=species:S:1:pos:R:3:forces:R:3 energy=-156.8891769305 free_energy=-156.8891769305 stress="-0.0018342835193049 -1.810972593614e-19 0.00076731509559907 -1.810972593614e-19 -0.00020597735968671 1.0256950878243e-19 0.00076731509559907 1.0256950878243e-19 -0.0021163710304033" pbc="T T T"
O        4.54896527       5.00000000       4.63475928      -1.52531269       0.00000000      -1.23347222
H        4.54896527       5.00000000       5.55698150      -0.42605832      -0.00000000       2.08827320
H        5.45103473       5.00000000       4.44301850       1.95137102       0.00000000      -0.85480097
3
Lattice="10.0 0.0 0.0 0.0 10.0 0.0 0.0 0.0 10.0" Properties=species:S:1:pos:R:3:forces:R:3 energy=-156.12133619883 free_energy=-156.12133619883 stress="0.0040962738755983 -5.9719674314948e-20 -0.00087389973671821 -5.9719674314948e-20 -0.00018786351428533 -9.1545248245915e-20 -0.00087389973671821 -9.1545248245915e-20 0.0058231889443947" pbc="T T T"
O        4.46745297       5.00000000       4.54097414       3.93606321      -0.00000000       4.11292023
H        4.46745297       5.00000000       5.68541859      -0.01392204       0.00000000      -4.93130820
H        5.53254703       5.00000000       4.31458141      -3.92214117       0.00000000       0.81838796
3
Lattice="10.0 0.0 0.0 0.0 10.0 0.0 0.0 0.0 10.0" Properties=species:S:1:pos:R:3:forces:R:3 energy=-152.70529341168 free_energy=-152.70529341168 stress="0.0063001749333466 -2.4554097025006e-20 -0.0015551468165174 -2.4554097025006e-20 -0.00021147278974111 8.6836317592671e-20 -0.0015551468165174 8.6836317592671e-20 -0.025813405988468" pbc="T T T"
O        4.42074674       5.00000000       4.80641504       5.76519606       0.00000000     -38.82070025
H        4.42074674       5.00000000       5.50641504      -0.24739074      -0.00000000      37.47954853
H        5.57925326       5.00000000       4.49358496      -5.51780532       0.00000000       1.34115172
3
Lattice="10.0 0.0 0.0 0.0 10.0 0.0 0.0 0.0 10.0" Properties=species:S:1:pos:R:3:forces:R:3 energy=-153.00963127979 free_energy=-153.00963127979 stress="-0.024247950180489 -9.2262589344084e-20 0.007111398438716 -9.2262589344084e-20 -0.00021348630473073 -1.3377119769419e-19 0.007111398438716 -1.3377119769419e-19 0.0037695039291501" pbc="T T T"
O        4.66355841       5.00000000       4.52425085     -35.76974328      -0.00000000      15.68072983
H        4.66355841       5.00000000       5.66869530      -0.15678233       0.00000000      -5.10509847
H        5.33644159       5.00000000       4.33130470      35.92652561       0.00000000     -10.57563136
3
Lattice="10.0 0.0 0.0 0.0 10.0 0.0 0.0 0.0 10.0" Properties=species:S:1:pos:R:3:forces:R:3 energy=-156.3693808481 free_energy=-156.3693808481 stress="0.0040040684395374 4.1327150745232e-21 -0.0012402878018696 4.1327150745232e-21 -0.00019157702595987 -1.4036437976403e-19 -0.0012402878018696 -1.4036437976403e-19 0.0047589611843502" pbc="T T T"
O        4.47438130       5.00000000       4.59748772       3.76520333      -0.00000000       2.88184010
H        4.47438130       5.00000000       5.68637661       0.12286559      -0.00000000      -4.05986249
H        5.52561870       5.00000000       4.31362339      -3.88806892      -0.00000000       1.17802239
3
Lattice="10.0 0.0 0.0 0.0 10.0 0.0 0.0 0.0 10.0" Properties=species:S:1:pos:R:3:forces:R:3 energy=-154.64910239552 free_energy=-154.64910239552 stress="0.0053640199546345 6.1639098039819e-20 -0.0013145214343127 6.1639098039819e-20 -0.00020884219311399 -1.8964068101663e-19 -0.0013145214343127 -1.8964068101663e-19 -0.016800678926031" pbc="T T T"
O        4.44756402       5.00000000       4.77139583       5.15113111      -0.00000000     -23.89551974
H        4.44756402       5.00000000       5.52695138      -0.21291474       0.00000000      22.70713045
H        5.55243598       5.00000000       4.47304862      -4.93821637      -0.00000000       1.18838929
3
Lattice="10.0 0.0 0.0 0.0 10.0 0.0 0.0 0.0 10.0" Properties=species:S:1:pos:R:3:forces:R:3 energy=-153.52433203182 free_energy=-153.52433203182 stress="-0.0017259453812179 -1.3529921404511e-19 0.0010355441443807 -1.3529921404511e-19 -0.00022301851454173 8.5232603779998e-20 0.0010355441443807 8.5232603779998e-20 -0.026492127077851" pbc="T T T"
O        4.54972250       5.00000000       4.74936616      -0.86799305      -0.00000000     -36.35919564
H        4.54972250       5.00000000       5.44936616      -0.96172880      -0.00000000      37.51304482
H        5.45027750       5.00000000       4.55063384       1.82972185       0.00000000      -1.15384919
3
Lattice="10.0 0.0 0.0 0.0 10.0 0.0 0.0 0.0 10.0" Properties=species:S:1:pos:R:3:forces:R:3 energy=-155.19663482371 free_energy=-155.19663482371 stress="-0.016330445372997 -8.0147381932213e-20 0.0041015055182168 -8.0147381932213e-20 -0.00021500570369785 3.918426515951e-20 0.0041015055182168 3.918426515951e-20 -0.00010120805524719" pbc="T T T"
O        4.63109795       5.00000000       4.59251953     -21.51699151      -0.00000000       6.43446053
H        4.63109795       5.00000000       5.57029731      -0.52362596      -0.00000000      -0.86877073
H        5.36890205       5.00000000       4.42970269      22.04061747       0.00000000      -5.56568980
3
Lattice="10.0 0.0 0.0 0.0 10.0 0.0 0.0 0.0 10.0" Properties=species:S:1:pos:R:3:forces:R:3 energy=-155.82118192257 free_energy=-155.82118192257 stress="0.0060782159055046 3.8098105945869e-20 -0.0019455751092125 3.8098105945869e-20 -0.00018825859488508 -6.841364366666e-20 -0.0019455751092125 -6.841364366666e-20 0.0049414118370829" pbc="T T T"
O        4.42197747       5.00000000       4.61645912       5.11646754      -0.00000000       2.35508900
H        4.42197747       5.00000000       5.70534801       0.20977179       0.00000000      -4.03637624
H        5.57802253       5.00000000       4.29465199      -5.32623934      -0.00000000       1.68128724
3
Lattice="10.0 0.0 0.0 0.0 10.0 0.0 0.0 0.0 10.0" Properties=species:S:1:pos:R:3:forces:R:3 energy=-150.20659000097 free_energy=-150.20659000097 stress="-0.024171918650007 -1.5177658703726e-19 0.0077792599205536 -1.5177658703726e-19 -0.00024261521053956 6.8879077606498e-20 0.0077792599205536 6.8879077606498e-20 -0.028553418613843" pbc="T T T"
O        4.66355841       5.00000000       4.74647307     -34.53471824      -0.00000000     -26.02057607
H        4.66355841       5.00000000       5.44647307      -1.25038494      -0.00000000      37.58618349
H        5.33644159       5.00000000       4.55352693      35.78510318       0.00000000     -11.56560742
3
Lattice="10.0 0.0 0.0 0.0 10.0 0.0 0.0 0.0 10.0" Properties=species:S:1:pos:R:3:forces:R:3 energy=-153.51899167625 free_energy=-153.51899167625 stress="-0.001742661470782 -1.6811799368195e-19 0.0010525206098047 -1.6811799368195e-19 -0.00022300916833853 1.0333934103445e-19 0.0010525206098047 1.0333934103445e-19 -0.026496290767825" pbc="T T T"
O        4.54896527       5.00000000       4.74587039      -0.84507403       0.00000000     -36.35293414
H        4.54896527       5.00000000       5.44587039      -0.99996505      -0.00000000      37.52366487
H        5.45103473       5.00000000       4.55412961       1.84503908       0.00000000      -1.17073073
3
Lattice="10.0 0.0 0.0 0.0 10.0 0.0 0.0 0.0 10.0" Properties=species:S:1:pos:R:3:forces:R:3 energy=-154.9636698117 free_energy=-154.9636698117 stress="-0.01602898726946 -8.0405368188496e-20 0.0046196100530485 -8.0405368188496e-20 -0.00022250471867225 7.7252918840317e-20 0.0046196100530485 7.7252918840317e-20 -0.0066949309540378" pbc="T T T"
O        4.63380106       5.00000000       4.65948038     -21.12323298      -0.00000000      -0.01690884
H        4.63380106       5.00000000       5.52614705      -0.66305463      -0.00000000       6.33054053
H        5.36619894       5.00000000       4.47385295      21.78628761       0.00000000      -6.31363169
3
Lattice="10.0 0.0 0.0 0.0 10.0 0.0 0.0 0.0 10.0" Properties=species:S:1:pos:R:3:forces:R:3 energy=-153.25850078185 free_energy=-153.25850078185 stress="-0.024742565885812 -4.7622150869319e-20 0.0064103199799872 -4.7622150869319e-20 -0.00021453195653678 -1.9336226840923e-19 0.0064103199799872 -1.9336226840923e-19 0.0029309842366433" pbc="T T T"
O        4.66007065       5.00000000       4.53891043     -35.95381233      -0.00000000      13.61110456
H        4.66007065       5.00000000       5.62779932      -0.33114634      -0.00000000      -4.17541754
H        5.33992935       5.00000000       4.37220068      36.28495867       0.00000000      -9.43568702
3
Lattice="10.0 0.0 0.0 0.0 10.0 0.0 0.0 0.0 10.0" Properties=species:S:1:pos:R:3:forces:R:3 energy=-156.85553758158 free_energy=-156.85553758158 stress="0.00067007488197451 1.3006599896994e-19 -0.00015937833250455 1.3006599896994e-19 -0.00019829092917473 -1.1775637990767e-19 -0.00015937833250455 -1.1775637990767e-19 0.002904042225063" pbc="T T T"
O        4.52704145       5.00000000       4.60711764       0.83015993       0.00000000       2.61137827
H        4.52704145       5.00000000       5.64045097      -0.03730125      -0.00000000      -2.77691516
H        5.47295855       5.00000000       4.35954903      -0.79285867      -0.00000000       0.16553689
3
Lattice="10.0 0.0 0.0 0.0 10.0 0.0 0.0 0.0 10.0" Properties=species:S:1:pos:R:3:forces:R:3 energy=-156.18664936386 free_energy=-156.18664936386 stress="0.00082616612786327 1.4806999391769e-19 -1.2670360874667e-06 1.4806999391769e-19 -0.00021144200865967 -2.6520057985319e-19 -1.2670360874667e-06 -2.6520057985319e-19 -0.0104312378067" pbc="T T T"
O        4.52901868       5.00000000       4.72555106       1.27620072      -0.00000000     -12.85039758
H        4.52901868       5.00000000       5.53666217      -0.31181814       0.00000000      12.85206366
H        5.47098132       5.00000000       4.46333783      -0.96438258      -0.00000000      -0.00166608
3
Lattice="10.0 0.0 0.0 0.0 10.0 0.0 0.0 0.0 10.0" Properties=species:S:1:pos:R:3:forces:R:3 energy=-155.61724406076 free_energy=-155.61724406076 stress="0.0053889135488319 9.2239100860459e-20 -0.0011756642078374 9.2239100860459e-20 -0.00020413528327352 -2.650505536776e-19 -0.0011756642078374 -2.650505536776e-19 -0.010217987318495" pbc="T T T"
O        4.44424249       5.00000000       4.73072305       5.13780702      -0.00000000     -14.00801300
H        4.44424249       5.00000000       5.54183416      -0.20919763       0.00000000      12.95184188
H        5.55575751       5.00000000       4.45816584      -4.92860939      -0.00000000       1.05617112
3
Lattice="10.0 0.0 0.0 0.0 10.0 0.0 0.0 0.0 10.0" Properties=species:S:1:pos:R:3:forces:R:3 energy=-156.84980878304 free_energy=-156.84980878304 stress="0.0026567636631551 -9.7189244276389e-21 -0.00037916994436595 -9.7189244276389e-21 -0.0001970597061922 -4.9363433188336e-20 -0.00037916994436595 -4.9363433188336e-20 0.00080894548005607" pbc="T T T"
O        4.49462374       5.00000000       4.61853215       2.92200972       0.00000000       0.38645203
H        4.49462374       5.00000000       5.59630993      -0.20916505      -0.00000000      -0.75943600
H        5.50537626       5.00000000       4.40369007      -2.71284467       0.00000000       0.37298397
3
Lattice="10.0 0.0 0.0 0.0 10.0 0.0 0.0 0.0 10.0" Properties=species:S:1:pos:R:3:forces:R:3 energy=-156.40707021004 free_energy=-156.40707021004 stress="0.00061683336386342 1.1276576380259e-19 -4.479318667512e-05 1.1276576380259e-19 -0.00019286867697606 -1.7965253333722e-19 -4.479318667512e-05 -1.7965253333722e-19 0.0056678843530516" pbc="T T T"
O        4.52179451       5.00000000       4.52942349       0.81947732       0.00000000       4.91464850
H        4.52179451       5.00000000       5.67386794      -0.09104488       0.00000000      -4.95855224
H        5.47820549       5.00000000       4.32613206      -0.72843244      -0.00000000       0.04390374
3
Lattice="10.0 0.0 0.0 0.0 10.0 0.0 0.0 0.0 10.0" Properties=species:S:1:pos:R:3:forces:R:3 energy=-152.79906803504 free_energy=-152.79906803504 stress="-0.024576902984343 -9.1594117183435e-20 0.0069704202147265 -9.1594117183435e-20 -0.00023198903152231 -2.1146455710826e-19 0.0069704202147265 -2.1146455710826e-19 -0.01225767496878" pbc="T T T"
O        4.66072745       5.00000000       4.68043362     -35.15428773      -0.00000000      -2.61323210
H        4.66072745       5.00000000       5.49154473      -0.93996537       0.00000000      12.89105252
H        5.33927255       5.00000000       4.50845527      36.09425309       0.00000000     -10.27782042
3
Lattice="10.0 0.0 0.0 0.0 10.0 0.0 0.0 0.0 10.0" Properties=species:S:1:pos:R:3:forces:R:3 energy=-156.60092301169 free_energy=-156.60092301169 stress="0.0026608245472353 2.3455363337649e-20 -0.00070277989491981 2.3455363337649e-20 -0.0002052641257363 1.1138023542719e-19 -0.00070277989491981 1.1138023542719e-19 -0.0053203670190717" pbc="T T T"
O        4.50334812       5.00000000       4.70907930       2.86771734      -0.00000000      -7.07628492
H        4.50334812       5.00000000       5.57574597      -0.10077373      -0.00000000       6.37076557
H        5.49665188       5.00000000       4.42425403      -2.76694361      -0.00000000       0.70551935
3
Lattice="10.0 0.0 0.0 0.0 10.0 0.0 0.0 0.0 10.0" Properties=species:S:1:pos:R:3:forces:R:3 energy=-155.09394966006 free_energy=-155.09394966006 stress="-0.016291533925744 -1.0236481995816e-19 0.0041239929940177 -1.0236481995816e-19 -0.00021228640849179 -4.9885245503697e-20 0.0041239929940177 -4.9885245503697e-20 0.0019380077595735" pbc="T T T"
O        4.63174053       5.00000000       4.56760085     -21.63024129      -0.00000000       8.43532038
H        4.63174053       5.00000000       5.60093419      -0.39756555       0.00000000      -2.82915830
H        5.36825947       5.00000000       4.39906581      22.02780684       0.00000000      -5.60616208
3
Lattice="10.0 0.0 0.0 0.0 10.0 0.0 0.0 0.0 10.0" Properties=species:S:1:pos:R:3:forces:R:3 energy=-153.49583825005 free_energy=-153.49583825005 stress="-0.015716303850242 -1.4339591636842e-19 0.0051472927471822 -1.4339591636842e-19 -0.00023189803499887 -9.3408617856647e-20 0.0051472927471822 -9.3408617856647e-20 -0.018609874225267" pbc="T T T"
O        4.63685669       5.00000000       4.72635189     -20.65354035      -0.00000000     -15.56141552
H        4.63685669       5.00000000       5.48190745      -0.87815957       0.00000000      22.65411815
H        5.36314331       5.00000000       4.51809255      21.53169992       0.00000000      -7.09270263
3
Lattice="10.0 0.0 0.0 0.0 10.0 0.0 0.0 0.0 10.0" Properties=species:S:1:pos:R:3:forces:R:3 energy=-155.84435314339 free_energy=-155.84435314339 stress="-0.0054301644707331 1.6456953567785e-20 0.0013017663588993 1.6456953567785e-20 -0.00019787120847531 -1.7131050149658e-20 0.0013017663588993 -1.7131050149658e-20 0.0064059696578423" pbc="T T T"
O        4.57613604       5.00000000       4.49009507      -6.18974244       0.00000000       7.13326150
H        4.57613604       5.00000000       5.69009507      -0.13527805      -0.00000000      -5.59209099
H        5.42386396       5.00000000       4.30990493       6.32502048      -0.00000000      -1.54117051
3
Lattice="10.0 0.0 0.0 0.0 10.0 0.0 0.0 0.0 10.0" Properties=species:S:1:pos:R:3:forces:R:3 energy=-154.89500341939 free_energy=-154.89500341939 stress="-0.016375711101632 -1.5982706634056e-19 0.0039687161782228 -1.5982706634056e-19 -0.00020983159320774 -6.6308619827043e-20 0.0039687161782228 -6.6308619827043e-20 0.0035862182285504" pbc="T T T"
O        4.63109795       5.00000000       4.53696397     -21.76605776      -0.00000000       9.52317079
H        4.63109795       5.00000000       5.62585286      -0.33892884       0.00000000      -4.13697951
H        5.36890205       5.00000000       4.37414714      22.10498660       0.00000000      -5.38619128
3
Lattice="10.0 0.0 0.0 0.0 10.0 0.0 0.0 0.0 10.0" Properties=species:S:1:pos:R:3:forces:R:3 energy=-153.5788885148 free_energy=-153.5788885148 stress="-0.024291443364598 -9.3312277548324e-20 0.0071496425678345 -9.3312277548324e-20 -0.00022004231109552 5.4861340785916e-21 0.0071496425678345 5.4861340785916e-21 -0.0010981714001499" pbc="T T T"
O        4.66282019       5.00000000       4.60497153     -35.48757490      -0.00000000      11.56070536
H        4.66282019       5.00000000       5.58274930      -0.41802843      -0.00000000      -0.95251623
H        5.33717981       5.00000000       4.41725070      35.90560332       0.00000000     -10.60818913
3
Lattice="10.0 0.0 0.0 0.0 10.0 0.0 0.0 0.0 10.0" Properties=species:S:1:pos:R:3:forces:R:3 energy=-154.35158610644 free_energy=-154.35158610644 stress="-0.01589716889152 -1.830882056524e-19 0.0045975423132046 -1.830882056524e-19 -0.00020787636081382 7.8677616478026e-20 0.0045975423132046 7.8677616478026e-20 0.005471379678914" pbc="T T T"
O        4.63685669       5.00000000       4.50412967     -21.74792788      -0.00000000      12.01688071
H        4.63685669       5.00000000       5.70412967      -0.04890687      -0.00000000      -5.67904126
H        5.36314331       5.00000000       4.29587033      21.79683475       0.00000000      -6.33783945
3
Lattice="10.0 0.0 0.0 0.0 10.0 0.0 0.0 0.0 10.0" Properties=species:S:1:pos:R:3:forces:R:3 energy=-156.89974312409 free_energy=-156.89974312409 stress="-0.0017882705935707 -1.4474594151114e-19 0.00070175999722474 -1.4474594151114e-19 -0.00020651190324011 2.2073723864199e-20 0.00070175999722474 2.2073723864199e-20 -0.0020804481027445" pbc="T T T"
O        4.55215657       5.00000000       4.64870563      -1.60859692       0.00000000      -1.26104490
H        4.55215657       5.00000000       5.57092785      -0.30555903      -0.00000000       2.04874096
H        5.44784343       5.00000000       4.42907215       1.91415595       0.00000000      -0.78769605
3
Lattice="10.0 0.0 0.0 0.0 10.0 0.0 0.0 0.0 10.0" Properties=species:S:1:pos:R:3:forces:R:3 energy=-156.59498779917 free_energy=-156.59498779917 stress="0.0027026491537596 8.4246877900637e-21 -0.00046641371496837 8.4246877900637e-21 -0.00020432272074227 1.4794428586045e-19 -0.00046641371496837 1.4794428586045e-19 -0.0054568428683538" pbc="T T T"
O        4.49819953       5.00000000       4.68971434       3.03328898       0.00000000      -6.88164792
H        4.49819953       5.00000000       5.55638101      -0.25285624      -0.00000000       6.41896309
H        5.50180047       5.00000000       4.44361899      -2.78043274      -0.00000000       0.46268483
3
Lattice="10.0 0.0 0.0 0.0 10.0 0.0 0.0 0.0 10.0" Properties=species:S:1:pos:R:3:forces:R:3 energy=-156.66470953365 free_energy=-156.66470953365 stress="-0.0052673651843834 -1.0932118736825e-20 0.0015849670965939 -1.0932118736825e-20 -0.00020974526232509 2.7673296524833e-20 0.0015849670965939 2.7673296524833e-20 -0.0022796775623178" pbc="T T T"
O        4.57684765       5.00000000       4.63226913      -5.66896700       0.00000000      -0.17991596
H        4.57684765       5.00000000       5.55449135      -0.47405992      -0.00000000       2.05805979
H        5.42315235       5.00000000       4.44550865       6.14302692      -0.00000000      -1.87814383
3
Lattice="10.0 0.0 0.0 0.0 10.0 0.0 0.0 0.0 10.0" Properties=species:S:1:pos:R:3:forces:R:3 energy=-155.86185852129 free_energy=-155.86185852129 stress="0.0050999648300495 7.0136296461557e-20 -0.0017459992672535 7.0136296461557e-20 -0.00018828797030072 -1.7009991436428e-19 -0.0017459992672535 -1.7009991436428e-19 0.0061858725697059" pbc="T T T"
O        4.44994470       5.00000000       4.58550360       4.48425249      -0.00000000       3.37733812
H        4.44994470       5.00000000       5.72994804       0.22480207       0.00000000      -4.96270438
H        5.55005530       5.00000000       4.27005196      -4.70905456      -0.00000000       1.58536627
3
Lattice="10.0 0.0 0.0 0.0 10.0 0.0 0.0 0.0 10.0" Properties=species:S:1:pos:R:3:forces:R:3 energy=-156.1845756679 free_energy=-156.1845756679 stress="0.00082520196007667 1.2254689643944e-19 3.2574406135822e-05 1.2254689643944e-19 -0.00021129559484569 -2.6242238709575e-19 3.2574406135822e-05 -2.6242238709575e-19 -0.010450797857171" pbc="T T T"
O        4.52801587       5.00000000       4.72189374       1.30519271      -0.00000000     -12.82532143
H        4.52801587       5.00000000       5.53300485      -0.34373778       0.00000000      12.86283354
H        5.47198413       5.00000000       4.46699515      -0.96145493      -0.00000000      -0.03751211
3
Lattice="10.0 0.0 0.0 0.0 10.0 0.0 0.0 0.0 10.0" Properties=species:S:1:pos:R:3:forces:R:3 energy=-156.9307640786 free_energy=-156.9307640786 stress="0.00074717338502657 2.2158640923837e-19 -5.748319100456e-05 2.2158640923837e-19 -0.00020380589948287 1.0497692523906e-19 -5.748319100456e-05 1.0497692523906e-19 -0.0018885552338106" pbc="T T T"
O        4.52704145       5.00000000       4.66267319       1.04920329       0.00000000      -2.11223142
H        4.52704145       5.00000000       5.58489542      -0.17403007      -0.00000000       2.05446149
H        5.47295855       5.00000000       4.41510458      -0.87517322      -0.00000000       0.05776993
3
Lattice="10.0 0.0 0.0 0.0 10.0 0.0 0.0 0.0 10.0" Properties=species:S:1:pos:R:3:forces:R:3 energy=-155.28724719768 free_energy=-155.28724719768 stress="0.0062485656358141 -8.1355008845615e-20 -0.001504497775937 -8.1355008845615e-20 -0.00018257683850671 -6.7135220456181e-20 -0.001504497775937 -6.7135220456181e-20 0.0069912681834721" pbc="T T T"
O        4.41409675       5.00000000       4.52929572       5.30948159      -0.00000000       4.26420964
H        4.41409675       5.00000000       5.72929572       0.08797620       0.00000000      -5.54608936
H        5.58590325       5.00000000       4.27070428      -5.39745780      -0.00000000       1.28187972
3
Lattice="10.0 0.0 0.0 0.0 10.0 0.0 0.0 0.0 10.0" Properties=species:S:1:pos:R:3:forces:R:3 energy=-156.93285887038 free_energy=-156.93285887038 stress="0.00074565095470184 1.6449303521596e-19 -0.00012441806957404 1.6449303521596e-19 -0.00020418956678508 3.3766415578505e-20 -0.00012441806957404 3.3766415578505e-20 -0.0018481458311837" pbc="T T T"
O        4.52901868       5.00000000       4.66999550       0.99328970       0.00000000      -2.16469629
H        4.52901868       5.00000000       5.59221772      -0.11622649      -0.00000000       2.03561959
H        5.47098132       5.00000000       4.40778228      -0.87706321      -0.00000000       0.12907671
3
Lattice="10.0 0.0 0.0 0.0 10.0 0.0 0.0 0.0 10.0" Properties=species:S:1:pos:R:3:forces:R:3 energy=-155.87095355223 free_energy=-155.87095355223 stress="0.0052683768930509 1.0191709874179e-19 -0.0013007533508617 1.0191709874179e-19 -0.00018634977816803 -7.1380522713702e-20 -0.0013007533508617 -7.1380522713702e-20 0.0059429093094135" pbc="T T T"
O        4.44219522       5.00000000       4.55541829       4.72859999      -0.00000000       3.76768036
H        4.44219522       5.00000000       5.69986273       0.06493414       0.00000000      -4.93165021
H        5.55780478       5.00000000       4.30013727      -4.79353413      -0.00000000       1.16396985
3
Lattice="10.0 0.0 0.0 0.0 10.0 0.0 0.0 0.0 10.0" Properties=species:S:1:pos:R:3:forces:R:3 energy=-150.15393255418 free_energy=-150.15393255418 stress="-0.024934105212378 -1.6593158396558e-19 0.0067481260342709 -1.6593158396558e-19 -0.00024339516682051 1.6035926156094e-19 0.0067481260342709 1.6035926156094e-19 -0.027954242109998" pbc="T T T"
O        4.65881844       5.00000000       4.72807138     -34.88691970      -0.00000000     -27.80125595
H        4.65881844       5.00000000       5.42807138      -1.51974722      -0.00000000      37.69531936
H        5.34118156       5.00000000       4.57192862      36.40666692       0.00000000      -9.89406341
3
Lattice="10.0 0.0 0.0 0.0 10.0 0.0 0.0 0.0 10.0" Properties=species:S:1:pos:R:3:forces:R:3 energy=-156.16609937616 free_energy=-156.16609937616 stress="-0.0095936710297647 -1.7232673300141e-19 0.0030326315891617 -1.7232673300141e-19 -0.00021469186440338 1.5191909322672e-19 0.0030326315891617 1.5191909322672e-19 -0.0026946977334445" pbc="T T T"
O        4.61015498       5.00000000       4.65067515     -11.89150522       0.00000000       1.94202689
H        4.61015498       5.00000000       5.57289737      -0.32662378      -0.00000000       1.95371202
H        5.38984502       5.00000000       4.42710263      12.21812901       0.00000000      -3.89573891
3
Lattice="10.0 0.0 0.0 0.0 10.0 0.0 0.0 0.0 10.0" Properties=species:S:1:pos:R:3:forces:R:3 energy=-152.99164453208 free_energy=-152.99164453208 stress="0.0054835810175244 7.6468780631513e-20 -0.00086095352564204 7.6468780631513e-20 -0.00021208332215996 -8.7333238672852e-22 -0.00086095352564204 -8.7333238672852e-22 -0.026071027285398" pbc="T T T"
O        4.44122190       5.00000000       4.77330981       5.52265464       0.00000000     -38.29227051
H        4.44122190       5.00000000       5.47330981      -0.53188281      -0.00000000      37.52334811
H        5.55877810       5.00000000       4.52669019      -4.99077182      -0.00000000       0.76892240
3
Lattice="10.0 0.0 0.0 0.0 10.0 0.0 0.0 0.0 10.0" Properties=species:S:1:pos:R:3:forces:R:3 energy=-156.92940303746 free_energy=-156.92940303746 stress="0.00074723042111185 9.2712395170949e-20 -2.350081644946e-05 9.2712395170949e-20 -0.00020362434418767 -5.5254573772305e-20 -2.350081644946e-05 -5.5254573772305e-20 -0.0019081619272606" pbc="T T T"
O        4.52609549       5.00000000       4.65900076       1.07686433       0.00000000      -2.08564196
H        4.52609549       5.00000000       5.58122298      -0.20330210      -0.00000000       2.06384570
H        5.47390451       5.00000000       4.41877702      -0.87356223      -0.00000000       0.02179627
3
Lattice="10.0 0.0 0.0 0.0 10.0 0.0 0.0 0.0 10.0" Properties=species:S:1:pos:R:3:forces:R:3 energy=-156.11255458978 free_energy=-156.11255458978 stress="0.0061827889455953 -2.093936744352e-20 -0.0017379452278301 -2.093936744352e-20 -0.00019263183663656 3.1503651325907e-20 -0.0017379452278301 3.1503651325907e-20 0.0011880540093965" pbc="T T T"
O        4.41955087       5.00000000       4.66302821       5.29819811      -0.00000000      -0.74917695
H        4.41955087       5.00000000       5.64080599       0.09780673      -0.00000000      -0.74626570
H        5.58044913       5.00000000       4.35919401      -5.39600485       0.00000000       1.49544265
3
Lattice="10.0 0.0 0.0 0.0 10.0 0.0 0.0 0.0 10.0" Properties=species:S:1:pos:R:3:forces:R:3 energy=-155.57652076113 free_energy=-155.57652076113 stress="0.005211965908947 1.3482799006409e-20 -0.0014572726214306 1.3482799006409e-20 -0.00018514311325291 -6.4360157483692e-20 -0.0014572726214306 -6.4360157483692e-20 0.0070320904128173" pbc="T T T"
O        4.44424249       5.00000000       4.53627860       4.62941690      -0.00000000       4.24922590
H        4.44424249       5.00000000       5.73627860       0.13057419      -0.00000000      -5.55831908
H        5.55575751       5.00000000       4.26372140      -4.75999109      -0.00000000       1.30909317
3
Lattice="10.0 0.0 0.0 0.0 10.0 0.0 0.0 0.0 10.0" Properties=species:S:1:pos:R:3:forces:R:3 energy=-156.92613743844 free_energy=-156.92613743844 stress="-0.0018352066418758 -9.3482751031579e-20 0.00065850354836573 -9.3482751031579e-20 -0.00020329616317584 4.7715788239326e-21 0.00065850354836573 4.7715788239326e-21 0.00063814815263996" pbc="T T T"
O        4.55131820       5.00000000       4.61745065      -1.71639366      -0.00000000       1.57067538
H        4.55131820       5.00000000       5.59522843      -0.24687763      -0.00000000      -0.83264251
H        5.44868180       5.00000000       4.40477157       1.96327129       0.00000000      -0.73803288
3
Lattice="10.0 0.0 0.0 0.0 10.0 0.0 0.0 0.0 10.0" Properties=species:S:1:pos:R:3:forces:R:3 energy=-153.00811252828 free_energy=-153.00811252828 stress="-0.024355543614471 -1.2942489247976e-19 0.0069621635046652 -1.2942489247976e-19 -0.00021330173246562 -8.4766707044303e-20 0.0069621635046652 -8.4766707044303e-20 0.0038598598615507" pbc="T T T"
O        4.66282019       5.00000000       4.52163819     -35.83073914      -0.00000000      15.42824919
H        4.66282019       5.00000000       5.66608264      -0.17700142       0.00000000      -5.09704448
H        5.33717981       5.00000000       4.33391736      36.00774057       0.00000000     -10.33120471
3
Lattice="10.0 0.0 0.0 0.0 10.0 0.0 0.0 0.0 10.0" Properties=species:S:1:pos:R:3:forces:R:3 energy=-156.07909756859 free_energy=-156.07909756859 stress="-0.0019642316290462 1.3761535034576e-19 0.00048860073709992 1.3761535034576e-19 -0.00019475821840228 -8.5461560047914e-20 0.00048860073709992 -8.5461560047914e-20 0.0065800417337024" pbc="T T T"
O        4.55050683       5.00000000       4.50285594      -2.05469653       0.00000000       6.13845212
H        4.55050683       5.00000000       5.70285594      -0.04758560      -0.00000000      -5.59081645
H        5.44949317       5.00000000       4.29714406       2.10228212      -0.00000000      -0.54763567
3
Lattice="10.0 0.0 0.0 0.0 10.0 0.0 0.0 0.0 10.0" Properties=species:S:1:pos:R:3:forces:R:3 energy=-155.84739056183 free_energy=-155.84739056183 stress="0.0061588642215711 -8.9477190082728e-20 -0.0018583351672914 -8.9477190082728e-20 -0.00019987812411808 -1.6802985326448e-19 -0.0018583351672914 -1.6802985326448e-19 -0.0050444601305427" pbc="T T T"
O        4.42324298       5.00000000       4.73204908       5.33800366      -0.00000000      -8.04706032
H        4.42324298       5.00000000       5.59871575       0.07539636       0.00000000       6.43743384
H        5.57675702       5.00000000       4.40128425      -5.41340003      -0.00000000       1.60962647
3
Lattice="10.0 0.0 0.0 0.0 10.0 0.0 0.0 0.0 10.0" Properties=species:S:1:pos:R:3:forces:R:3 energy=-156.01637161578 free_energy=-156.01637161578 stress="0.0025543832351293 5.3727819243185e-20 -0.00054224982106375 5.3727819243185e-20 -0.00018848896271214 -4.3628651152941e-21 -0.00054224982106375 -4.3628651152941e-21 0.0067728272363586" pbc="T T T"
O        4.49462374       5.00000000       4.50742104       2.62516809      -0.00000000       5.02188322
H        4.49462374       5.00000000       5.70742104      -0.01648614      -0.00000000      -5.55613232
H        5.50537626       5.00000000       4.29257896      -2.60868195      -0.00000000       0.53424910
3
Lattice="10.0 0.0 0.0 0.0 10.0 0.0 0.0 0.0 10.0" Properties=species:S:1:pos:R:3:forces:R:3 energy=-153.25486481842 free_energy=-153.25486481842 stress="0.0042865662263142 6.0627094904888e-20 -0.00065352137702115 6.0627094904888e-20 -0.00021430577148387 8.2901733240859e-20 -0.00065352137702115 8.2901733240859e-20 -0.026088870543362" pbc="T T T"
O        4.47023113       5.00000000       4.77555753       4.68994249       0.00000000     -38.11380544
H        4.47023113       5.00000000       5.47555753      -0.55359336      -0.00000000      37.49846799
H        5.52976887       5.00000000       4.52444247      -4.13634913      -0.00000000       0.61533744
3
Lattice="10.0 0.0 0.0 0.0 10.0 0.0 0.0 0.0 10.0" Properties=species:S:1:pos:R:3:forces:R:3 energy=-156.37158182182 free_energy=-156.37158182182 stress="0.0040577021267487 -5.087469895158e-20 -0.0010713988881816 -5.087469895158e-20 -0.00019079330428583 -1.1772605008506e-19 -0.0010713988881816 -1.1772605008506e-19 0.0046642779194503" pbc="T T T"
O        4.47122101       5.00000000       4.58521869       3.86580429       0.00000000       3.03135122
H        4.47122101       5.00000000       5.67410758       0.04929037       0.00000000      -4.04252642
H        5.52877899       5.00000000       4.32589242      -3.91509467      -0.00000000       1.01117520
3
Lattice="10.0 0.0 0.0 0.0 10.0 0.0 0.0 0.0 10.0" Properties=species:S:1:pos:R:3:forces:R:3 energy=-156.10940943025 free_energy=-156.10940943025 stress="0.0060963307261056 1.1370555705026e-20 -0.0019468478271274 1.1370555705026e-20 -0.00019345032399506 6.3626163701182e-20 -0.0019468478271274 6.3626163701182e-20 0.0013103160945183" pbc="T T T"
O        4.42324298       5.00000000       4.67649352       5.17959141      -0.00000000      -0.92020628
H        4.42324298       5.00000000       5.65427130       0.17642356      -0.00000000      -0.76602773
H        5.57675702       5.00000000       4.34572870      -5.35601498       0.00000000       1.68623401
3
Lattice="10.0 0.0 0.0 0.0 10.0 0.0 0.0 0.0 10.0" Properties=species:S:1:pos:R:3:forces:R:3 energy=-156.3753493699 free_energy=-156.3753493699 stress="-0.0019239510841523 -1.9656135527706e-19 0.00050013521183607 -1.9656135527706e-19 -0.0001968288459576 -6.8069337099006e-20 0.00050013521183607 -6.8069337099006e-20 0.0055863445064898" pbc="T T T"
O        4.55215657       5.00000000       4.53759452      -2.02402700      -0.00000000       5.56376961
H        4.55215657       5.00000000       5.68203896      -0.04158031       0.00000000      -5.00121012
H        5.44784343       5.00000000       4.31796104       2.06560732       0.00000000      -0.56255949
3
Lattice="10.0 0.0 0.0 0.0 10.0 0.0 0.0 0.0 10.0" Properties=species:S:1:pos:R:3:forces:R:3 energy=-155.22221821114 free_energy=-155.22221821114 stress="-0.015790926859694 -1.1980243874116e-19 0.0048126970738719 -1.1980243874116e-19 -0.00021583989796677 6.114329971591e-20 0.0048126970738719 6.114329971591e-20 -0.00047644107467033" pbc="T T T"
O        4.63685669       5.00000000       4.61524078     -21.33428253      -0.00000000       7.58778884
H        4.63685669       5.00000000       5.59301856      -0.31155293      -0.00000000      -0.95474549
H        5.36314331       5.00000000       4.40698144      21.64583546       0.00000000      -6.63304335
3
Lattice="10.0 0.0 0.0 0.0 10.0 0.0 0.0 0.0 10.0" Properties=species:S:1:pos:R:3:forces:R:3 energy=-155.84789593479 free_energy=-155.84789593479 stress="-0.0053479803897857 -3.0958967750511e-20 0.0013521061084564 -3.0958967750511e-20 -0.00019873235653513 -3.9517886231398e-20 0.0013521061084564 -3.9517886231398e-20 0.0063893062799647" pbc="T T T"
O        4.57913509       5.00000000       4.50320127      -6.22368547       0.00000000       7.22917570
H        4.57913509       5.00000000       5.70320127      -0.04858674      -0.00000000      -5.61722120
H        5.42086491       5.00000000       4.29679873       6.27227221      -0.00000000      -1.61195450
3
Lattice="10.0 0.0 0.0 0.0 10.0 0.0 0.0 0.0 10.0" Properties=species:S:1:pos:R:3:forces:R:3 energy=-152.80490815343 free_energy=-152.80490815343 stress="-0.024471453000622 -1.4128387471402e-19 0.0071191331699471 -1.4128387471402e-19 -0.00023195828047198 -2.5095270143264e-19 0.0071191331699471 -2.5095270143264e-19 -0.012341530675306" pbc="T T T"
O        4.66140467       5.00000000       4.68306275     -35.10282232      -0.00000000      -2.35866716
H        4.66140467       5.00000000       5.49417386      -0.90764431       0.00000000      12.87661216
H        5.33859533       5.00000000       4.50582614      36.01046663       0.00000000     -10.51794500
3
Lattice="10.0 0.0 0.0 0.0 10.0 0.0 0.0 0.0 10.0" Properties=species:S:1:pos:R:3:forces:R:3 energy=-156.67656363539 free_energy=-156.67656363539 stress="-0.0017406382726977 -1.6759004959506e-19 0.00075010758395637 -1.6759004959506e-19 -0.00021018675052138 -2.3828375031053e-19 0.00075010758395637 -2.3828375031053e-19 -0.0057231915076911" pbc="T T T"
O        4.55302188       5.00000000       4.67995400      -1.48514259      -0.00000000      -5.52028012
H        4.55302188       5.00000000       5.54662066      -0.37875425       0.00000000       6.36355920
H        5.44697812       5.00000000       4.45337934       1.86389684       0.00000000      -0.84327909
3
Lattice="10.0 0.0 0.0 0.0 10.0 0.0 0.0 0.0 10.0" Properties=species:S:1:pos:R:3:forces:R:3 energy=-156.66158298099 free_energy=-156.66158298099 stress="0.0040501040690151 -5.5510754236718e-20 -0.0012190779199741 -5.5510754236718e-20 -0.00019660150316276 -8.4488946363823e-20 -0.0012190779199741 -8.4488946363823e-20 0.001122778063161" pbc="T T T"
O        4.47549808       5.00000000       4.65711620       3.87618119      -0.00000000      -0.36188259
H        4.47549808       5.00000000       5.63489398       0.06664951       0.00000000      -0.79858552
H        5.52450192       5.00000000       4.36510602      -3.94283070       0.00000000       1.16046811
3
Lattice="10.0 0.0 0.0 0.0 10.0 0.0 0.0 0.0 10.0" Properties=species:S:1:pos:R:3:forces:R:3 energy=-155.09941140836 free_energy=-155.09941140836 stress="0.0027702832181692 -4.0904499845428e-20 -0.00034194948364264 -4.0904499845428e-20 -0.00021244644813735 -2.3229952171215e-19 -0.00034194948364264 -2.3229952171215e-19 -0.017076004306192" pbc="T T T"
O        4.49819953       5.00000000       4.74526989       3.32902446      -0.00000000     -23.04430801
H        4.49819953       5.00000000       5.50082545      -0.47797736       0.00000000      22.70559595
H        5.50180047       5.00000000       4.49917455      -2.85104710      -0.00000000       0.33871205
3
Lattice="10.0 0.0 0.0 0.0 10.0 0.0 0.0 0.0 10.0" Properties=species:S:1:pos:R:3:forces:R:3 energy=-155.828249629 free_energy=-155.828249629 stress="0.0062431000083033 -3.5448250662863e-20 -0.0015215430524098 -3.5448250662863e-20 -0.00018662117010979 -1.8535872751363e-19 -0.0015215430524098 -1.8535872751363e-19 0.004714765824546" pbc="T T T"
O        4.41511732       5.00000000       4.58939220       5.33766809      -0.00000000       2.70840395
H        4.41511732       5.00000000       5.67828109       0.06622730       0.00000000      -4.00724407
H        5.58488268       5.00000000       4.32171891      -5.40389539      -0.00000000       1.29884012
3
Lattice="10.0 0.0 0.0 0.0 10.0 0.0 0.0 0.0 10.0" Properties=species:S:1:pos:R:3:forces:R:3 energy=-156.65903177798 free_energy=-156.65903177798 stress="0.00064309100759652 1.8456213960263e-19 -3.1259865244546e-06 1.8456213960263e-19 -0.00019480273177375 -1.5767309078842e-19 -3.1259865244546e-06 -1.5767309078842e-19 0.0043976279602398" pbc="T T T"
O        4.52179451       5.00000000       4.55720127       0.89476155      -0.00000000       4.05390854
H        4.52179451       5.00000000       5.64609016      -0.13890745       0.00000000      -4.05421463
H        5.47820549       5.00000000       4.35390984      -0.75585410      -0.00000000       0.00030609
3
Lattice="10.0 0.0 0.0 0.0 10.0 0.0 0.0 0.0 10.0" Properties=species:S:1:pos:R:3:forces:R:3 energy=-153.32062927517 free_energy=-153.32062927517 stress="-0.0050772658540023 -2.3653983193607e-19 0.0019281427544672 -2.3653983193607e-19 -0.00022721702257008 7.1155177826792e-20 0.0019281427544672 7.1155177826792e-20 -0.026730377336198" pbc="T T T"
O        4.57994828       5.00000000       4.75646279      -5.01198846      -0.00000000     -35.18281913
H        4.57994828       5.00000000       5.45646279      -0.94453168      -0.00000000      37.48284615
H        5.42005172       5.00000000       4.54353721       5.95652014       0.00000000      -2.30002702
3
Lattice="10.0 0.0 0.0 0.0 10.0 0.0 0.0 0.0 10.0" Properties=species:S:1:pos:R:3:forces:R:3 energy=-156.82628844893 free_energy=-156.82628844893 stress="-0.0018331361183935 6.6400263102157e-20 0.00054548471930373 6.6400263102157e-20 -0.00020148867361832 -1.8664738570382e-19 0.00054548471930373 -1.8664738570382e-19 0.0027457427501644" pbc="T T T"
O        4.55483315       5.00000000       4.60354119      -1.90749275      -0.00000000       3.42751153
H        4.55483315       5.00000000       5.63687452      -0.06922644       0.00000000      -2.81058937
H        5.44516685       5.00000000       4.36312548       1.97671919      -0.00000000      -0.61692215
3
Lattice="10.0 0.0 0.0 0.0 10.0 0.0 0.0 0.0 10.0" Properties=species:S:1:pos:R:3:forces:R:3 energy=-156.37155593476 free_energy=-156.37155593476 stress="0.0041168371764278 2.4464890772303e-20 -0.0008384396563934 2.4464890772303e-20 -0.00018984033186292 -1.1533079697226e-19 -0.0008384396563934 -1.1533079697226e-19 0.0045471674443084" pbc="T T T"
O        4.46745297       5.00000000       4.56875192       3.99361848       0.00000000       3.23379761
H        4.46745297       5.00000000       5.65764081      -0.05123693       0.00000000      -4.01895186
H        5.53254703       5.00000000       4.34235919      -3.94238154      -0.00000000       0.78515425
3
Lattice="10.0 0.0 0.0 0.0 10.0 0.0 0.0 0.0 10.0" Properties=species:S:1:pos:R:3:forces:R:3 energy=-153.33083467465 free_energy=-153.33083467465 stress="-0.024367667381074 -1.7413976154483e-19 0.0071687404580667 -1.7413976154483e-19 -0.0002272766890588 7.323283987011e-20 0.0071687404580667 7.323283987011e-20 -0.0074501607835535" pbc="T T T"
O        4.66210227       5.00000000       4.65790877     -35.23126523      -0.00000000       4.29772636
H        4.66210227       5.00000000       5.52457544      -0.70405260      -0.00000000       6.31559832
H        5.33789773       5.00000000       4.47542456      35.93531784       0.00000000     -10.61332468
3
Lattice="10.0 0.0 0.0 0.0 10.0 0.0 0.0 0.0 10.0" Properties=species:S:1:pos:R:3:forces:R:3 energy=-155.93173423755 free_energy=-155.93173423755 stress="-0.0097463691772765 -5.4553414349043e-20 0.0029417047569881 -5.4553414349043e-20 -0.00021795143637043 -1.7587218465799e-19 0.0029417047569881 -1.7587218465799e-19 -0.0062655626509008" pbc="T T T"
O        4.60687467       5.00000000       4.66630492     -11.74565498      -0.00000000      -2.58533078
H        4.60687467       5.00000000       5.53297159      -0.56342558       0.00000000       6.33276760
H        5.39312533       5.00000000       4.46702841      12.30908057       0.00000000      -3.74743682
3
Lattice="10.0 0.0 0.0 0.0 10.0 0.0 0.0 0.0 10.0" Properties=species:S:1:pos:R:3:forces:R:3 energy=-156.3988781809 free_energy=-156.3988781809 stress="-0.0053161714260733 1.4845466038955e-19 0.0014281335057059 1.4845466038955e-19 -0.00020197483261343 -1.559395009514e-19 0.0014281335057059 -1.559395009514e-19 0.0041216069141085" pbc="T T T"
O        4.57834722       5.00000000       4.55548910      -6.05427600      -0.00000000       5.81721294
H        4.57834722       5.00000000       5.64437799      -0.16944727       0.00000000      -4.11817662
H        5.42165278       5.00000000       4.35562201       6.22372327      -0.00000000      -1.69903632
3
Lattice="10.0 0.0 0.0 0.0 10.0 0.0 0.0 0.0 10.0" Properties=species:S:1:pos:R:3:forces:R:3 energy=-151.82063489304 free_energy=-151.82063489304 stress="-0.016104785527575 -2.1953112164335e-19 0.0048249532839599 -2.1953112164335e-19 -0.00023739293574064 1.5524946536878e-19 0.0048249532839599 1.5524946536878e-19 -0.027501882808662" pbc="T T T"
O        4.63309213       5.00000000       4.73997034     -20.55742821      -0.00000000     -30.99821100
H        4.63309213       5.00000000       5.43997034      -1.28011016      -0.00000000      37.57871776
H        5.36690787       5.00000000       4.56002966      21.83753837       0.00000000      -6.58050675
3
Lattice="10.0 0.0 0.0 0.0 10.0 0.0 0.0 0.0 10.0" Properties=species:S:1:pos:R:3:forces:R:3 energy=-153.00554743959 free_energy=-153.00554743959 stress="0.0053917141684327 9.2990187111244e-20 -0.0012554600489347 9.2990187111244e-20 -0.00021299924097973 2.0088033972355e-21 -0.0012554600489347 2.0088033972355e-21 -0.025885876236435" pbc="T T T"
O        4.44756402       5.00000000       4.79917360       5.29158639       0.00000000     -38.60584030
H        4.44756402       5.00000000       5.49917360      -0.32616993      -0.00000000      37.47081293
H        5.55243598       5.00000000       4.50082640      -4.96541645      -0.00000000       1.13502737
3
Lattice="10.0 0.0 0.0 0.0 10.0 0.0 0.0 0.0 10.0" Properties=species:S:1:pos:R:3:forces:R:3 energy=-154.90282218136 free_energy=-154.90282218136 stress="-0.016189143171987 -1.1123917128255e-19 0.0042456976837841 -1.1123917128255e-19 -0.0002102617707639 -1.3291758246536e-19 0.0042456976837841 -1.3291758246536e-19 0.0034566647763453" pbc="T T T"
O        4.63309213       5.00000000       4.54552590     -21.70231058      -0.00000000       9.95674061
H        4.63309213       5.00000000       5.63441479      -0.26809401       0.00000000      -4.16385263
H        5.36690787       5.00000000       4.36558521      21.97040459       0.00000000      -5.79288798
3
Lattice="10.0 0.0 0.0 0.0 10.0 0.0 0.0 0.0 10.0" Properties=species:S:1:pos:R:3:forces:R:3 energy=-156.12116155465 free_energy=-156.12116155465 stress="0.0040671567671513 2.8546860905534e-21 -0.0009900919321946 2.8546860905534e-21 -0.00018834582722898 -1.3648089640315e-19 -0.0009900919321946 -1.3648089640315e-19 0.0058794139872961" pbc="T T T"
O        4.46927312       5.00000000       4.54922214       3.87479400      -0.00000000       4.01085889
H        4.46927312       5.00000000       5.69366659       0.03363860       0.00000000      -4.94159207
H        5.53072688       5.00000000       4.30633341      -3.90843260      -0.00000000       0.93073318
3
Lattice="10.0 0.0 0.0 0.0 10.0 0.0 0.0 0.0 10.0" Properties=species:S:1:pos:R:3:forces:R:3 energy=-155.86823086402 free_energy=-155.86823086402 stress="-0.010022897172755 -6.0106077874954e-20 0.0025004842092862 -6.0106077874954e-20 -0.00020556951134364 -1.6374740627525e-19 0.0025004842092862 -1.6374740627525e-19 0.0039005758567935" pbc="T T T"
O        4.60397280       5.00000000       4.54294989     -12.29456421      -0.00000000       7.28485358
H        4.60397280       5.00000000       5.63183877      -0.27792280       0.00000000      -4.12130362
H        5.39602720       5.00000000       4.36816123      12.57248701       0.00000000      -3.16354997
3
Lattice="10.0 0.0 0.0 0.0 10.0 0.0 0.0 0.0 10.0" Properties=species:S:1:pos:R:3:forces:R:3 energy=-153.4411960353 free_energy=-153.4411960353 stress="-0.025093648208021 -1.7241786014753e-19 0.0058516929020988 -1.7241786014753e-19 -0.00021650301526917 1.9824397174927e-21 0.0058516929020988 1.9824397174927e-21 0.0016131767100255" pbc="T T T"
O        4.65764834       5.00000000       4.55610243     -36.02390485      -0.00000000      11.37005585
H        4.65764834       5.00000000       5.58943576      -0.51567284      -0.00000000      -2.81723279
H        5.34235166       5.00000000       4.41056424      36.53957769       0.00000000      -8.55282307
3
Lattice="10.0 0.0 0.0 0.0 10.0 0.0 0.0 0.0 10.0" Properties=species:S:1:pos:R:3:forces:R:3 energy=-155.91931181131 free_energy=-155.91931181131 stress="-0.0098767093916149 -1.9950489568943e-19 0.0028146991930098 -1.9950489568943e-19 -0.00021777624319258 6.6547715127629e-20 0.0028146991930098 6.6547715127629e-20 -0.006199752965004" pbc="T T T"
O        4.60466263       5.00000000       4.65713033     -11.74814518      -0.00000000      -2.80267818
H        4.60466263       5.00000000       5.52379699      -0.65707962      -0.00000000       6.36853566
H        5.39533737       5.00000000       4.47620301      12.40522480       0.00000000      -3.56585749
3
Lattice="10.0 0.0 0.0 0.0 10.0 0.0 0.0 0.0 10.0" Properties=species:S:1:pos:R:3:forces:R:3 energy=-155.10903857551 free_energy=-155.10903857551 stress="0.0027467820033948 -3.4846389292073e-20 -0.00053200176065392 -3.4846389292073e-20 -0.00021299721246069 -1.3832107368512e-19 -0.00053200176065392 -1.3832107368512e-19 -0.016977714670007" pbc="T T T"
O        4.50225838       5.00000000       4.76077807       3.19385375      -0.00000000     -23.19705009
H        4.50225838       5.00000000       5.51633363      -0.34358195       0.00000000      22.66461098
H        5.49774162       5.00000000       4.48366637      -2.85027180       0.00000000       0.53243911
3
Lattice="10.0 0.0 0.0 0.0 10.0 0.0 0.0 0.0 10.0" Properties=species:S:1:pos:R:3:forces:R:3 energy=-156.1742331431 free_energy=-156.1742331431 stress="0.00081633398763683 1.5439204713316e-19 0.0001710099354878 1.5439204713316e-19 -0.00021077816087142 -2.0034928580238e-19 0.0001710099354878 -2.0034928580238e-19 -0.010523058635954" pbc="T T T"
O        4.52428917       5.00000000       4.70718998       1.41941389      -0.00000000     -12.72239563
H        4.52428917       5.00000000       5.51830109      -0.47429936       0.00000000      12.90512891
H        5.47571083       5.00000000       4.48169891      -0.94511453      -0.00000000      -0.18273328
3
Lattice="10.0 0.0 0.0 0.0 10.0 0.0 0.0 0.0 10.0" Properties=species:S:1:pos:R:3:forces:R:3 energy=-153.44099689035 free_energy=-153.44099689035 stress="-0.016359276939267 -1.3228357942868e-19 0.0043655681625933 -1.3228357942868e-19 -0.00023228407354507 -1.577677852287e-19 0.0043655681625933 -1.577677852287e-19 -0.01816730879805" pbc="T T T"
O        4.63047757       5.00000000       4.70076664     -20.83390162      -0.00000000     -16.86721326
H        4.63047757       5.00000000       5.45632219      -1.19755762       0.00000000      22.77991415
H        5.36952243       5.00000000       4.54367781      22.03145924       0.00000000      -5.91270089
3
Lattice="10.0 0.0 0.0 0.0 10.0 0.0 0.0 0.0 10.0" Properties=species:S:1:pos:R:3:forces:R:3 energy=-152.99233149554 free_energy=-152.99233149554 stress="-0.025038917642295 -1.1711212387267e-19 0.0058801102576831 -1.1711212387267e-19 -0.00021218271394177 -9.8514413088588e-20 0.0058801102576831 -9.8514413088588e-20 0.004419949598774" pbc="T T T"
O        4.65822311       5.00000000       4.50320028     -36.20180175      -0.00000000      13.64791595
H        4.65822311       5.00000000       5.64764473      -0.32320885       0.00000000      -5.03850201
H        5.34177689       5.00000000       4.35235527      36.52501060       0.00000000      -8.60941394
3
Lattice="10.0 0.0 0.0 0.0 10.0 0.0 0.0 0.0 10.0" Properties=species:S:1:pos:R:3:forces:R:3 energy=-155.92352181355 free_energy=-155.92352181355 stress="-0.005161619201604 8.7395609576945e-20 0.0017491496124053 8.7395609576945e-20 -0.00021780951008794 -2.4732629545366e-19 0.0017491496124053 -2.4732629545366e-19 -0.010884395942622" pbc="T T T"
O        4.57834722       5.00000000       4.69437799      -5.36833569      -0.00000000     -10.79923833
H        4.57834722       5.00000000       5.50548910      -0.66876976       0.00000000      12.87855819
H        5.42165278       5.00000000       4.49451090       6.03710546      -0.00000000      -2.07931986
3
Lattice="10.0 0.0 0.0 0.0 10.0 0.0 0.0 0.0 10.0" Properties=species:S:1:pos:R:3:forces:R:3 energy=-156.06256570668 free_energy=-156.06256570668 stress="0.0027514999759769 1.3586441907104e-20 -0.00025831002474313 1.3586441907104e-20 -0.00020780832728489 -2.3721036059098e-19 -0.00025831002474313 -2.3721036059098e-19 -0.010455266026037" pbc="T T T"
O        4.49547220       5.00000000       4.70578243       3.27084327      -0.00000000     -13.19743724
H        4.49547220       5.00000000       5.51689354      -0.45532541       0.00000000      12.94352778
H        5.50452780       5.00000000       4.48310646      -2.81551786      -0.00000000       0.25390947
3
Lattice="10.0 0.0 0.0 0.0 10.0 0.0 0.0 0.0 10.0" Properties=species:S:1:pos:R:3:forces:R:3 energy=-153.55986126795 free_energy=-153.55986126795 stress="0.00086637077765568 2.0765721442826e-19 0.00030792999176296 2.0765721442826e-19 -0.00021955999939077 3.2143726266051e-20 0.00030792999176296 3.2143726266051e-20 -0.026313627579632" pbc="T T T"
O        4.52428917       5.00000000       4.76274554       1.76512843       0.00000000     -37.16146994
H        4.52428917       5.00000000       5.46274554      -0.76473286      -0.00000000      37.48802964
H        5.47571083       5.00000000       4.53725446      -1.00039557      -0.00000000      -0.32655970
3
Lattice="10.0 0.0 0.0 0.0 10.0 0.0 0.0 0.0 10.0" Properties=species:S:1:pos:R:3:forces:R:3 energy=-156.63036435992 free_energy=-156.63036435992 stress="0.0041367991936618 -1.4103933140441e-20 -0.0010012510160074 -1.4103933140441e-20 -0.00019887370649139 4.8154948552997e-20 -0.0010012510160074 4.8154948552997e-20 -0.0016963217346598" pbc="T T T"
O        4.47224270       5.00000000       4.67264983       4.07930575      -0.00000000      -3.06005059
H        4.47224270       5.00000000       5.59487206      -0.07744577      -0.00000000       2.11315539
H        5.52775730       5.00000000       4.40512794      -4.00185998       0.00000000       0.94689520
3
Lattice="10.0 0.0 0.0 0.0 10.0 0.0 0.0 0.0 10.0" Properties=species:S:1:pos:R:3:forces:R:3 energy=-156.85133534272 free_energy=-156.85133534272 stress="0.00067399843713143 2.1433862155569e-19 8.7449475074465e-06 2.1433862155569e-19 -0.00019725279451907 -1.0837395802261e-19 8.7449475074465e-06 -1.0837395802261e-19 0.0028110564101074" pbc="T T T"
O        4.52259735       5.00000000       4.58868540       0.95984888       0.00000000       2.75055075
H        4.52259735       5.00000000       5.62201874      -0.17018759       0.00000000      -2.73841327
H        5.47740265       5.00000000       4.37798126      -0.78966129      -0.00000000      -0.01213748
3
Lattice="10.0 0.0 0.0 0.0 10.0 0.0 0.0 0.0 10.0" Properties=species:S:1:pos:R:3:forces:R:3 energy=-156.56141159397 free_energy=-156.56141159397 stress="0.002581236742886 3.2173477706902e-20 -0.00056576404715947 3.2173477706902e-20 -0.00019257797788446 -1.6647572130265e-19 -0.00056576404715947 -1.6647572130265e-19 0.0045293586660004" pbc="T T T"
O        4.49635102       5.00000000       4.57080378       2.68753987      -0.00000000       3.48871292
H        4.49635102       5.00000000       5.65969267      -0.04191812       0.00000000      -4.04824682
H        5.50364898       5.00000000       4.34030733      -2.64562175      -0.00000000       0.55953391
3
Lattice="10.0 0.0 0.0 0.0 10.0 0.0 0.0 0.0 10.0" Properties=species:S:1:pos:R:3:forces:R:3 energy=-156.90816953202 free_energy=-156.90816953202 stress="-0.0017349344414177 -2.2422262499774e-19 0.00062331902696763 -2.2422262499774e-19 -0.00020733789545854 5.9188626071698e-20 0.00062331902696763 5.9188626071698e-20 -0.0020317602325756" pbc="T T T"
O        4.55675155       5.00000000       4.66598834      -1.71356453      -0.00000000      -1.29164659
H        4.55675155       5.00000000       5.58821056      -0.16066588      -0.00000000       1.99904313
H        5.44324845       5.00000000       4.41178944       1.87423041       0.00000000      -0.70739655
3
Lattice="10.0 0.0 0.0 0.0 10.0 0.0 0.0 0.0 10.0" Properties=species:S:1:pos:R:3:forces:R:3 energy=-156.44580319112 free_energy=-156.44580319112 stress="-0.0051878928699858 1.1667004162943e-19 0.0016732564418231 1.1667004162943e-19 -0.0002136238609248 -2.2844850382569e-19 0.0016732564418231 -2.2844850382569e-19 -0.0059435762300912" pbc="T T T"
O        4.57834722       5.00000000       4.66660021      -5.53913335       0.00000000      -4.37801556
H        4.57834722       5.00000000       5.53326688      -0.53050752       0.00000000       6.36744462
H        5.42165278       5.00000000       4.46673312       6.06964086      -0.00000000      -1.98942906
3
Lattice="10.0 0.0 0.0 0.0 10.0 0.0 0.0 0.0 10.0" Properties=species:S:1:pos:R:3:forces:R:3 energy=-156.12112522636 free_energy=-156.12112522636 stress="0.0052859969929972 -3.6995007358971e-20 -0.0012690911553378 -3.6995007358971e-20 -0.00018833839437327 -1.1267780542448e-19 -0.0012690911553378 -1.1267780542448e-19 0.0046646927307884" pbc="T T T"
O        4.44219522       5.00000000       4.58319606       4.77479021      -0.00000000       2.88128886
H        4.44219522       5.00000000       5.67208495       0.03542606       0.00000000      -4.01693516
H        5.55780478       5.00000000       4.32791505      -4.81021628      -0.00000000       1.13564630
3
Lattice="10.0 0.0 0.0 0.0 10.0 0.0 0.0 0.0 10.0" Properties=species:S:1:pos:R:3:forces:R:3 energy=-155.88027795277 free_energy=-155.88027795277 stress="0.0041481125133762 -4.9684676710885e-20 -0.00111947286915 -4.9684676710885e-20 -0.000206939669582 -2.2420340702669e-19 -0.00111947286915 -2.2420340702669e-19 -0.010129266136897" pbc="T T T"
O        4.47664641       5.00000000       4.74451367       4.17218017      -0.00000000     -13.95341634
H        4.47664641       5.00000000       5.55562478      -0.12139767       0.00000000      12.88533704
H        5.52335359       5.00000000       4.44437522      -4.05078250       0.00000000       1.06807931
3
Lattice="10.0 0.0 0.0 0.0 10.0 0.0 0.0 0.0 10.0" Properties=species:S:1:pos:R:3:forces:R:3 energy=-156.11375210942 free_energy=-156.11375210942 stress="0.0063038189325635 -7.3084898062427e-20 -0.0013752737059017 -7.3084898062427e-20 -0.00019139757340632 -7.2211373466412e-21 -0.0013752737059017 -7.2211373466412e-21 0.0010017396915439" pbc="T T T"
O        4.41409675       5.00000000       4.64040683       5.48539916      -0.00000000      -0.45807795
H        4.41409675       5.00000000       5.61818461      -0.03693981       0.00000000      -0.71375435
H        5.58590325       5.00000000       4.38181539      -5.44845934       0.00000000       1.17183230
3
Lattice="10.0 0.0 0.0 0.0 10.0 0.0 0.0 0.0 10.0" Properties=species:S:1:pos:R:3:forces:R:3 energy=-156.07606794444 free_energy=-156.07606794444 stress="0.0027185209374236 -2.7656028390897e-21 -0.00054917064512324 -2.7656028390897e-21 -0.00020870045543545 -3.0699023401233e-19 -0.00054917064512324 -3.0699023401233e-19 -0.010305705456143" pbc="T T T"
O        4.50119858       5.00000000       4.72913517       3.07406529      -0.00000000     -13.43220815
H        4.50119858       5.00000000       5.54024628      -0.25965178       0.00000000      12.88372400
H        5.49880142       5.00000000       4.45975372      -2.81441351      -0.00000000       0.54848415
3
Lattice="10.0 0.0 0.0 0.0 10.0 0.0 0.0 0.0 10.0" Properties=species:S:1:pos:R:3:forces:R:3 energy=-156.1207564545 free_energy=-156.1207564545 stress="0.0040512582273288 9.4376344847705e-20 -0.0010474122505138 9.4376344847705e-20 -0.00018859668334569 -2.2754134441252e-19 -0.0010474122505138 -2.2754134441252e-19 0.0059085447742568" pbc="T T T"
O        4.47023113       5.00000000       4.55333531       3.84345269      -0.00000000       3.96009564
H        4.47023113       5.00000000       5.69777975       0.05718543       0.00000000      -4.94664793
H        5.52976887       5.00000000       4.30222025      -3.90063812      -0.00000000       0.98655229
3
Lattice="10.0 0.0 0.0 0.0 10.0 0.0 0.0 0.0 10.0" Properties=species:S:1:pos:R:3:forces:R:3 energy=-153.5436403415 free_energy=-153.5436403415 stress="-0.0016618696986763 -1.9618463023379e-19 0.00096852074955195 -1.9618463023379e-19 -0.00022312436135861 7.8557818461038e-20 0.00096852074955195 7.8557818461038e-20 -0.026474464368266" pbc="T T T"
O        4.55302188       5.00000000       4.76328733      -0.95979534      -0.00000000     -36.38234162
H        4.55302188       5.00000000       5.46328733      -0.81235840      -0.00000000      37.46974118
H        5.44697812       5.00000000       4.53671267       1.77215373       0.00000000      -1.08739956
3
Lattice="10.0 0.0 0.0 0.0 10.0 0.0 0.0 0.0 10.0" Properties=species:S:1:pos:R:3:forces:R:3 energy=-156.95999802499 free_energy=-156.95999802499 stress="0.00070643821149716 2.5727932790103e-19 -0.00014451552406464 2.5727932790103e-19 -0.00020103982484845 -9.1752648439382e-21 -0.00014451552406464 -9.1752648439382e-21 0.00085605131622881" pbc="T T T"
O        4.52801587       5.00000000       4.63856040       0.90431551       0.00000000       0.69193578
H        4.52801587       5.00000000       5.61633818      -0.07108697      -0.00000000      -0.84204636
H        5.47198413       5.00000000       4.38366182      -0.83322854      -0.00000000       0.15011058
3
Lattice="10.0 0.0 0.0 0.0 10.0 0.0 0.0 0.0 10.0" Properties=species:S:1:pos:R:3:forces:R:3 energy=-155.91917477 free_energy=-155.91917477 stress="-0.0051882633186723 -1.1755979582613e-19 0.0017410036275253 -1.1755979582613e-19 -0.00021775898472492 -2.2075583976629e-19 0.0017410036275253 -2.2075583976629e-19 -0.01087879288748" pbc="T T T"
O        4.57758473       5.00000000       4.69110425      -5.35524847      -0.00000000     -10.82434117
H        4.57758473       5.00000000       5.50221536      -0.70244931       0.00000000      12.89026569
H        5.42241527       5.00000000       4.49778464       6.05769777       0.00000000      -2.06592451
3
Lattice="10.0 0.0 0.0 0.0 10.0 0.0 0.0 0.0 10.0" Properties=species:S:1:pos:R:3:forces:R:3 energy=-156.9329726724 free_energy=-156.9329726724 stress="-0.0017853218548309 -1.6410863180481e-19 0.00058174635512598 -1.6410863180481e-19 -0.00020420657763836 3.0709751608987e-20 0.00058174635512598 3.0709751608987e-20 0.00068617342998567" pbc="T T T"
O        4.55577898       5.00000000       4.63476848      -1.81827210      -0.00000000       1.53703951
H        4.55577898       5.00000000       5.61254626      -0.10884277      -0.00000000      -0.87798096
H        5.44422102       5.00000000       4.38745374       1.92711488       0.00000000      -0.65905855
3
Lattice="10.0 0.0 0.0 0.0 10.0 0.0 0.0 0.0 10.0" Properties=species:S:1:pos:R:3:forces:R:3 energy=-153.30992863864 free_energy=-153.30992863864 stress="-0.0051365035246505 1.8598537608466e-19 0.0019125779177842 1.8598537608466e-19 -0.00022722448523607 4.4968562609397e-20 0.0019125779177842 4.4968562609397e-20 -0.026713622691228" pbc="T T T"
O        4.57834722       5.00000000       4.74993354      -4.98440712       0.00000000     -35.23348548
H        4.57834722       5.00000000       5.44993354      -1.01959892      -0.00000000      37.50632165
H        5.42165278       5.00000000       4.55006646       6.00400604      -0.00000000      -2.27283617
3
Lattice="10.0 0.0 0.0 0.0 10.0 0.0 0.0 0.0 10.0" Properties=species:S:1:pos:R:3:forces:R:3 energy=-156.40778533462 free_energy=-156.40778533462 stress="0.0006160000998094 1.311976872092e-19 -7.7903809504027e-05 1.311976872092e-19 -0.0001930864331563 -2.2574538172744e-19 -7.7903809504027e-05 -2.2574538172744e-19 0.0056846398334491" pbc="T T T"
O        4.52259735       5.00000000       4.53312985       0.79589063      -0.00000000       4.88605322
H        4.52259735       5.00000000       5.67757429      -0.06706433       0.00000000      -4.96472634
H        5.47740265       5.00000000       4.32242571      -0.72882629      -0.00000000       0.07867313
3
Lattice="10.0 0.0 0.0 0.0 10.0 0.0 0.0 0.0 10.0" Properties=species:S:1:pos:R:3:forces:R:3 energy=-156.9295044095 free_energy=-156.9295044095 stress="-0.0018147610434576 -1.2915105704982e-19 0.00062730084579792 -1.2915105704982e-19 -0.00020363964681455 5.8240310479791e-20 0.00062730084579792 5.8240310479791e-20 0.00065690625438418" pbc="T T T"
O        4.55302188       5.00000000       4.62439844      -1.75701649      -0.00000000       1.55673492
H        4.55302188       5.00000000       5.60217622      -0.19096648      -0.00000000      -0.85079294
H        5.44697812       5.00000000       4.39782378       1.94798297       0.00000000      -0.70594198
3
Lattice="10.0 0.0 0.0 0.0 10.0 0.0 0.0 0.0 10.0" Properties=species:S:1:pos:R:3:forces:R:3 energy=-153.00021193659 free_energy=-153.00021193659 stress="-0.024761192386367 -9.6588707962073e-20 0.0063515132624162 -9.6588707962073e-20 -0.00021262465656792 -1.4465833958073e-19 0.0063515132624162 -1.4465833958073e-19 0.0041958037119646" pbc="T T T"
O        4.66007065       5.00000000       4.51113265     -36.05474431      -0.00000000      14.41360549
H        4.66007065       5.00000000       5.65557710      -0.25955654       0.00000000      -5.06407441
H        5.33992935       5.00000000       4.34442290      36.31430085       0.00000000      -9.34953108
3
Lattice="10.0 0.0 0.0 0.0 10.0 0.0 0.0 0.0 10.0" Properties=species:S:1:pos:R:3:forces:R:3 energy=-156.30804843212 free_energy=-156.30804843212 stress="0.0052235667481924 2.6506778253321e-20 -0.0014958231063812 2.6506778253321e-20 -0.00019163902847059 -1.2654138719654e-19 -0.0014958231063812 -1.2654138719654e-19 0.0031966261747933" pbc="T T T"
O        4.44642351       5.00000000       4.62821724       4.69120845       0.00000000       1.36176079
H        4.44642351       5.00000000       5.66155057       0.10098444      -0.00000000      -2.71107877
H        5.55357649       5.00000000       4.33844943      -4.79219290      -0.00000000       1.34931798
3
Lattice="10.0 0.0 0.0 0.0 10.0 0.0 0.0 0.0 10.0" Properties=species:S:1:pos:R:3:forces:R:3 energy=-154.95426458898 free_energy=-154.95426458898 stress="-0.016164968089119 -8.7811042989305e-20 0.0044428624349345 -8.7811042989305e-20 -0.00022244477021484 7.2274752207046e-20 0.0044428624349345 7.2274752207046e-20 -0.0066019410028582" pbc="T T T"
O        4.63240527       5.00000000       4.65378822     -21.16430062       0.00000000      -0.30661712
H        4.63240527       5.00000000       5.52045488      -0.72454800      -0.00000000       6.35590048
H        5.36759473       5.00000000       4.47954512      21.88884862       0.00000000      -6.04928336
3
Lattice="10.0 0.0 0.0 0.0 10.0 0.0 0.0 0.0 10.0" Properties=species:S:1:pos:R:3:forces:R:3 energy=-154.64981771962 free_energy=-154.64981771962 stress="-0.016013910617604 -1.3712759426662e-19 0.0044640484640658 -1.3712759426662e-19 -0.00020894641734828 -9.4068215207343e-20 0.0044640484640658 -9.4068215207343e-20 0.0045748666780214" pbc="T T T"
O        4.63528499       5.00000000       4.52626132     -21.72467499      -0.00000000      11.20404280
H        4.63528499       5.00000000       5.67070577      -0.13800067       0.00000000      -5.07676145
H        5.36471501       5.00000000       4.32929423      21.86267565       0.00000000      -6.12728135
3
Lattice="10.0 0.0 0.0 0.0 10.0 0.0 0.0 0.0 10.0" Properties=species:S:1:pos:R:3:forces:R:3 energy=-156.90374000187 free_energy=-156.90374000187 stress="-0.0017664101313144 -1.5087936721723e-19 0.00066987632194053 -1.5087936721723e-19 -0.00020682157413133 2.1106400192289e-19 0.00066987632194053 2.1106400192289e-19 -0.0020614449011166" pbc="T T T"
O        4.55391409       5.00000000       4.65563999      -1.65050703      -0.00000000      -1.27383950
H        4.55391409       5.00000000       5.57786222      -0.24683548      -0.00000000       2.02890572
H        5.44608591       5.00000000       4.42213778       1.89734252       0.00000000      -0.75506623
3
Lattice="10.0 0.0 0.0 0.0 10.0 0.0 0.0 0.0 10.0" Properties=species:S:1:pos:R:3:forces:R:3 energy=-156.07239156729 free_energy=-156.07239156729 stress="0.0027324831019299 8.1314120443366e-20 -0.00045387398609659 8.1314120443366e-20 -0.00020837608431549 -3.0590691185018e-19 -0.00045387398609659 -3.0590691185018e-19 -0.010358685008518" pbc="T T T"
O        4.49916910       5.00000000       4.72138085       3.14087421      -0.00000000     -13.35510180
H        4.49916910       5.00000000       5.53249196      -0.32378506       0.00000000      12.90400742
H        5.50083090       5.00000000       4.46750804      -2.81708915      -0.00000000       0.45109438
3
Lattice="10.0 0.0 0.0 0.0 10.0 0.0 0.0 0.0 10.0" Properties=species:S:1:pos:R:3:forces:R:3 energy=-156.58646566371 free_energy=-156.58646566371 stress="0.002722941633775 -7.99240025924e-21 -0.00026940714553778 -7.99240025924e-21 -0.00020369208872881 -2.0046816870812e-19 -0.00026940714553778 -2.0046816870812e-19 -0.0055546468247523" pbc="T T T"
O        4.49462374       5.00000000       4.67408771       3.16003744      -0.00000000      -6.72098516
H        4.49462374       5.00000000       5.54075437      -0.37911088       0.00000000       6.45656631
H        5.50537626       5.00000000       4.45924563      -2.78092656       0.00000000       0.26441885
3
Lattice="10.0 0.0 0.0 0.0 10.0 0.0 0.0 0.0 10.0" Properties=species:S:1:pos:R:3:forces:R:3 energy=-156.37571487628 free_energy=-156.37571487628 stress="-0.0019080485046306 -7.1899053627668e-20 0.00047343106367354 -7.1899053627668e-20 -0.00019729771109287 -6.7151129451335e-20 0.00047343106367354 -6.7151129451335e-20 0.0056034191337515" pbc="T T T"
O        4.55391409       5.00000000       4.54452888      -2.06042813      -0.00000000       5.54883642
H        4.55391409       5.00000000       5.68897333       0.00451294       0.00000000      -5.01399506
H        5.44608591       5.00000000       4.31102667       2.05591519       0.00000000      -0.53484136
3
Lattice="10.0 0.0 0.0 0.0 10.0 0.0 0.0 0.0 10.0" Properties=species:S:1:pos:R:3:forces:R:3 energy=-152.81054583156 free_energy=-152.81054583156 stress="-0.024363637006496 -1.5508025685041e-19 0.0072665380567341 -1.5508025685041e-19 -0.00023193477509985 -1.9867401450836e-19 0.0072665380567341 -1.9867401450836e-19 -0.012427932767068" pbc="T T T"
O        4.66210227       5.00000000       4.68568655     -35.04932031      -0.00000000      -2.10447579
H        4.66210227       5.00000000       5.49679766      -0.87567202       0.00000000      12.86221980
H        5.33789773       5.00000000       4.50320234      35.92499233       0.00000000     -10.75774401
3
Lattice="10.0 0.0 0.0 0.0 10.0 0.0 0.0 0.0 10.0" Properties=species:S:1:pos:R:3:forces:R:3 energy=-156.67917394108 free_energy=-156.67917394108 stress="-0.0051442554348129 1.5837835007033e-19 0.0016290144417711 1.5837835007033e-19 -0.00021033751912405 -3.3231601123972e-20 0.0016290144417711 -3.3231601123972e-20 -0.002297765832447" pbc="T T T"
O        4.58078674       5.00000000       4.64860680      -5.72781629       0.00000000      -0.05726446
H        4.58078674       5.00000000       5.57082902      -0.32619487      -0.00000000       2.00559638
H        5.41921326       5.00000000       4.42917098       6.05401116      -0.00000000      -1.94833191
3
Lattice="10.0 0.0 0.0 0.0 10.0 0.0 0.0 0.0 10.0" Properties=species:S:1:pos:R:3:forces:R:3 energy=-154.63623625862 free_energy=-154.63623625862 stress="-0.016455631297069 -8.7621917211782e-20 0.0038171114698622 -8.7621917211782e-20 -0.00020773445095639 -8.018731773657e-20 0.0038171114698622 -8.018731773657e-20 0.0048910452522991" pbc="T T T"
O        4.63047757       5.00000000       4.50632219     -21.88625440      -0.00000000      10.19307375
H        4.63047757       5.00000000       5.65076664      -0.29086479       0.00000000      -5.02081320
H        5.36952243       5.00000000       4.34923336      22.17711919       0.00000000      -5.17226055
3
Lattice="10.0 0.0 0.0 0.0 10.0 0.0 0.0 0.0 10.0" Properties=species:S:1:pos:R:3:forces:R:3 energy=-156.01356430287 free_energy=-156.01356430287 stress="0.0024911911263979 1.4590969994523e-20 -0.00081562630997725 1.4590969994523e-20 -0.00019001360643539 6.858614353818e-21 -0.00081562630997725 6.858614353818e-21 0.0069154405211597" pbc="T T T"
O        4.50016880       5.00000000       4.53081750       2.45917907      -0.00000000       4.77050031
H        4.50016880       5.00000000       5.73081750       0.11600946      -0.00000000      -5.58433884
H        5.49983120       5.00000000       4.26918250      -2.57518853      -0.00000000       0.81383853
3
Lattice="10.0 0.0 0.0 0.0 10.0 0.0 0.0 0.0 10.0" Properties=species:S:1:pos:R:3:forces:R:3 energy=-154.93858467593 free_energy=-154.93858467593 stress="-0.016358005727748 -1.3514799442357e-19 0.0041724525156024 -1.3514799442357e-19 -0.00022241049891996 1.2240583436358e-19 0.0041724525156024 1.2240583436358e-19 -0.0064740608905107" pbc="T T T"
O        4.63047757       5.00000000       4.64521108     -21.21717159      -0.00000000      -0.74223930
H        4.63047757       5.00000000       5.51187775      -0.81908597      -0.00000000       6.39412345
H        5.36952243       5.00000000       4.48812225      22.03625756       0.00000000      -5.65188416
3
Lattice="10.0 0.0 0.0 0.0 10.0 0.0 0.0 0.0 10.0" Properties=species:S:1:pos:R:3:forces:R:3 energy=-155.2197210299 free_energy=-155.2197210299 stress="-0.015863520184272 -1.447834052057e-19 0.0047264868417362 -1.447834052057e-19 -0.00021571177342764 2.5333471576775e-20 0.0047264868417362 2.5333471576775e-20 -0.00042428317539486" pbc="T T T"
O        4.63605989       5.00000000       4.61242076     -21.36118051      -0.00000000       7.44423444
H        4.63605989       5.00000000       5.59019854      -0.33721624      -0.00000000      -0.94413601
H        5.36394011       5.00000000       4.40980146      21.69839674       0.00000000      -6.50009842
3
Lattice="10.0 0.0 0.0 0.0 10.0 0.0 0.0 0.0 10.0" Properties=species:S:1:pos:R:3:forces:R:3 energy=-155.61239521197 free_energy=-155.61239521197 stress="0.0054365126630648 8.820059925087e-20 -0.00097346071530416 8.820059925087e-20 -0.00020358656722151 -2.5919294269901e-19 -0.00097346071530416 -2.5919294269901e-19 -0.010317480271488" pbc="T T T"
O        4.44122190       5.00000000       4.71775425       5.24933944      -0.00000000     -13.84775136
H        4.44122190       5.00000000       5.52886536      -0.30505938       0.00000000      12.97833185
H        5.55877810       5.00000000       4.47113464      -4.94428006      -0.00000000       0.86941951
3
Lattice="10.0 0.0 0.0 0.0 10.0 0.0 0.0 0.0 10.0" Properties=species:S:1:pos:R:3:forces:R:3 energy=-153.32567510096 free_energy=-153.32567510096 stress="-0.005047467501054 9.3439918898181e-20 0.0019357920261841 9.3439918898181e-20 -0.00022722402442093 2.592630472765e-20 0.0019357920261841 2.592630472765e-20 -0.026738997703093" pbc="T T T"
O        4.58078674       5.00000000       4.75971791      -5.02539102       0.00000000     -35.15726915
H        4.58078674       5.00000000       5.45971791      -0.90756898      -0.00000000      37.47102069
H        5.41921326       5.00000000       4.54028209       5.93296000      -0.00000000      -2.31375154
3
Lattice="10.0 0.0 0.0 0.0 10.0 0.0 0.0 0.0 10.0" Properties=species:S:1:pos:R:3:forces:R:3 energy=-154.90503100063 free_energy=-154.90503100063 stress="-0.016123881157482 -1.4922345646845e-19 0.0043365620642903 -1.4922345646845e-19 -0.00021041847887924 -7.7968744338837e-20 0.0043365620642903 -7.7968744338837e-20 0.0034100997061781" pbc="T T T"
O        4.63380106       5.00000000       4.54836927     -21.67878866      -0.00000000      10.10083477
H        4.63380106       5.00000000       5.63725816      -0.24486382       0.00000000      -4.17267916
H        5.36619894       5.00000000       4.36274184      21.92365248       0.00000000      -5.92815561
3
Lattice="10.0 0.0 0.0 0.0 10.0 0.0 0.0 0.0 10.0" Properties=species:S:1:pos:R:3:forces:R:3 energy=-156.40594187438 free_energy=-156.40594187438 stress="0.00059360975749211 1.6943319739094e-19 -0.00033152994405843 1.6943319739094e-19 -0.00019506525641015 -1.7623375764968e-19 -0.00033152994405843 -1.7623375764968e-19 0.0058304779326262" pbc="T T T"
O        4.53004984       5.00000000       4.56253382       0.59800106      -0.00000000       4.66202788
H        4.53004984       5.00000000       5.70697826       0.11876982       0.00000000      -5.01189103
H        5.46995016       5.00000000       4.29302174      -0.71677087      -0.00000000       0.34986315
3
Lattice="10.0 0.0 0.0 0.0 10.0 0.0 0.0 0.0 10.0" Properties=species:S:1:pos:R:3:forces:R:3 energy=-154.95907076078 free_energy=-154.95907076078 stress="-0.016097700651931 -1.3199094614514e-19 0.0045316043833743 -1.3199094614514e-19 -0.00022247109967281 1.0850189669692e-19 0.0045316043833743 1.0850189669692e-19 -0.0066476584295661" pbc="T T T"
O        4.63309213       5.00000000       4.65663701     -21.14435101      -0.00000000      -0.16168785
H        4.63309213       5.00000000       5.52330367      -0.69364883      -0.00000000       6.34320999
H        5.36690787       5.00000000       4.47669633      21.83799984       0.00000000      -6.18152214
3
Lattice="10.0 0.0 0.0 0.0 10.0 0.0 0.0 0.0 10.0" Properties=species:S:1:pos:R:3:forces:R:3 energy=-152.70047965647 free_energy=-152.70047965647 stress="0.0063645748316446 -1.4486115862244e-19 -0.0013431764347041 -1.4486115862244e-19 -0.00021092186135751 6.9604343597996e-20 -0.0013431764347041 6.9604343597996e-20 -0.02591917984143" pbc="T T T"
O        4.41726397       5.00000000       4.79289407       5.88630536       0.00000000     -38.65642141
H        4.41726397       5.00000000       5.49289407      -0.34650079      -0.00000000      37.50527178
H        5.58273603       5.00000000       4.50710593      -5.53980457       0.00000000       1.15114963
3
Lattice="10.0 0.0 0.0 0.0 10.0 0.0 0.0 0.0 10.0" Properties=species:S:1:pos:R:3:forces:R:3 energy=-152.69222518621 free_energy=-152.69222518621 stress="-0.025141020563439 -1.1595740595873e-19 0.0056641965238158 -1.1595740595873e-19 -0.0002103799232847 2.9464424853495e-20 0.0056641965238158 2.9464424853495e-20 0.0054941772303685" pbc="T T T"
O        4.65764834       5.00000000       4.47276909     -36.33553749      -0.00000000      13.90297112
H        4.65764834       5.00000000       5.67276909      -0.27911306      -0.00000000      -5.62298941
H        5.34235166       5.00000000       4.32723091      36.61465055       0.00000000      -8.27998170
3
Lattice="10.0 0.0 0.0 0.0 10.0 0.0 0.0 0.0 10.0" Properties=species:S:1:pos:R:3:forces:R:3 energy=-154.34743508216 free_energy=-154.34743508216 stress="0.0063208166957455 -2.7136241400813e-20 -0.0014702039370901 -2.7136241400813e-20 -0.00020691121103472 -1.1924767024359e-19 -0.0014702039370901 -1.1924767024359e-19 -0.016806773823819" pbc="T T T"
O        4.41838992       5.00000000       4.76963224       5.71840858      -0.00000000     -24.00122810
H        4.41838992       5.00000000       5.52518780      -0.20742189       0.00000000      22.73870265
H        5.58161008       5.00000000       4.47481220      -5.51098670      -0.00000000       1.26252545
3
Lattice="10.0 0.0 0.0 0.0 10.0 0.0 0.0 0.0 10.0" Properties=species:S:1:pos:R:3:forces:R:3 energy=-155.86376481436 free_energy=-155.86376481436 stress="0.0051269836169378 1.3616606890655e-19 -0.0016844692815226 1.3616606890655e-19 -0.00018799185214835 -1.3052679311485e-19 -0.0016844692815226 -1.3052679311485e-19 0.0061493584430636" pbc="T T T"
O        4.44873778       5.00000000       4.58123211       4.52066884      -0.00000000       3.43236103
H        4.44873778       5.00000000       5.72567655       0.20241549       0.00000000      -4.95840960
H        5.55126222       5.00000000       4.27432345      -4.72308433      -0.00000000       1.52604857
3
Lattice="10.0 0.0 0.0 0.0 10.0 0.0 0.0 0.0 10.0" Properties=species:S:1:pos:R:3:forces:R:3 energy=-156.17461557053 free_energy=-156.17461557053 stress="-0.0098874445831383 -4.4359469098508e-20 0.0027111452190125 -4.4359469098508e-20 -0.00021082954014059 5.5234562063486e-20 0.0027111452190125 5.5234562063486e-20 0.00018072279706515" pbc="T T T"
O        4.60537625       5.00000000       4.60463866     -12.05245990       0.00000000       4.31764131
H        4.60537625       5.00000000       5.58241644      -0.39163936      -0.00000000      -0.87622429
H        5.39462375       5.00000000       4.41758356      12.44409926       0.00000000      -3.44141703
3
Lattice="10.0 0.0 0.0 0.0 10.0 0.0 0.0 0.0 10.0" Properties=species:S:1:pos:R:3:forces:R:3 energy=-156.07068694804 free_energy=-156.07068694804 stress="-0.0098761558823972 -1.4165241528853e-19 0.0026923708345261 -1.4165241528853e-19 -0.0002082849158287 -4.5921932294444e-20 0.0026923708345261 -4.5921932294444e-20 0.0022355056950448" pbc="T T T"
O        4.60611361       5.00000000       4.57991914     -12.17660148      -0.00000000       6.25583936
H        4.60611361       5.00000000       5.61325247      -0.27722614       0.00000000      -2.83166439
H        5.39388639       5.00000000       4.38674753      12.45382762       0.00000000      -3.42417498
3
Lattice="10.0 0.0 0.0 0.0 10.0 0.0 0.0 0.0 10.0" Properties=species:S:1:pos:R:3:forces:R:3 energy=-156.40764188951 free_energy=-156.40764188951 stress="0.00060172105138071 1.2609117060455e-19 -0.00027015380559584 1.2609117060455e-19 -0.00019453138554228 -1.2560486861474e-19 -0.00027015380559584 -1.2560486861474e-19 0.0057922466192385" pbc="T T T"
O        4.52801587       5.00000000       4.55522707       0.64892422       0.00000000       4.71712926
H        4.52801587       5.00000000       5.69967151       0.07332211       0.00000000      -5.00044889
H        5.47198413       5.00000000       4.30032849      -0.72224632      -0.00000000       0.28331963
3
Lattice="10.0 0.0 0.0 0.0 10.0 0.0 0.0 0.0 10.0" Properties=species:S:1:pos:R:3:forces:R:3 energy=-151.82749985394 free_energy=-151.82749985394 stress="-0.016031578868035 -1.5882130592413e-19 0.0049114564372157 -1.5882130592413e-19 -0.00023731306244021 4.2665229576015e-20 0.0049114564372157 4.2665229576015e-20 -0.027552298394632" pbc="T T T"
O        4.63380106       5.00000000       4.74281372     -20.53799373      -0.00000000     -30.85332163
H        4.63380106       5.00000000       5.44281372      -1.24170332      -0.00000000      37.56465498
H        5.36619894       5.00000000       4.55718628      21.77969705       0.00000000      -6.71133335
3
Lattice="10.0 0.0 0.0 0.0 10.0 0.0 0.0 0.0 10.0" Properties=species:S:1:pos:R:3:forces:R:3 energy=-156.62988330257 free_energy=-156.62988330257 stress="-0.0018942311751049 -1.7668248228643e-19 0.00054227765493828 -1.7668248228643e-19 -0.00019868854715727 -8.8132470780877e-20 0.00054227765493828 -8.8132470780877e-20 0.0043199767731789" pbc="T T T"
O        4.55215657       5.00000000       4.56537229      -1.94399032      -0.00000000       4.71358532
H        4.55215657       5.00000000       5.65426118      -0.08884982       0.00000000      -4.10394856
H        5.44784343       5.00000000       4.34573882       2.03284014       0.00000000      -0.60963676
3
Lattice="10.0 0.0 0.0 0.0 10.0 0.0 0.0 0.0 10.0" Properties=species:S:1:pos:R:3:forces:R:3 energy=-155.84780782547 free_energy=-155.84780782547 stress="0.0061869765937205 -7.0002428929939e-20 -0.0017890481096477 -7.0002428929939e-20 -0.00019962399244721 1.2960248493344e-20 -0.0017890481096477 1.2960248493344e-20 -0.0050863516724918" pbc="T T T"
O        4.42197747       5.00000000       4.72757023       5.37893950       0.00000000      -7.99183550
H        4.42197747       5.00000000       5.59423690       0.04679645      -0.00000000       6.44570594
H        5.57802253       5.00000000       4.40576310      -5.42573596       0.00000000       1.54612956
3
Lattice="10.0 0.0 0.0 0.0 10.0 0.0 0.0 0.0 10.0" Properties=species:S:1:pos:R:3:forces:R:3 energy=-156.14057655687 free_energy=-156.14057655687 stress="-0.0099416267361641 1.1281777076557e-20 0.0026940832402748 1.1281777076557e-20 -0.00021388314170769 8.8528947555912e-20 0.0026940832402748 8.8528947555912e-20 -0.0025174907064206" pbc="T T T"
O        4.60397280       5.00000000       4.62628322     -11.90982921      -0.00000000       1.36498706
H        4.60397280       5.00000000       5.54850544      -0.55745837      -0.00000000       2.04254601
H        5.39602720       5.00000000       4.45149456      12.46728758       0.00000000      -3.40753308
3
Lattice="10.0 0.0 0.0 0.0 10.0 0.0 0.0 0.0 10.0" Properties=species:S:1:pos:R:3:forces:R:3 energy=-154.346130472 free_energy=-154.346130472 stress="0.0063421981910365 -5.9505771160428e-20 -0.0013983627264219 -5.9505771160428e-20 -0.0002067153524268 -9.5624955421846e-20 -0.0013983627264219 -9.5624955421846e-20 -0.016843362380688" pbc="T T T"
O        4.41726397       5.00000000       4.76511629       5.75806270      -0.00000000     -23.94583472
H        4.41726397       5.00000000       5.52067185      -0.23947443       0.00000000      22.74742746
H        5.58273603       5.00000000       4.47932815      -5.51858827       0.00000000       1.19840726
3
Lattice="10.0 0.0 0.0 0.0 10.0 0.0 0.0 0.0 10.0" Properties=species:S:1:pos:R:3:forces:R:3 energy=-156.95848306747 free_energy=-156.95848306747 stress="0.00070874608379553 1.6595571547698e-19 -7.7792051675205e-05 1.6595571547698e-19 -0.00020062779082685 9.4380233433096e-21 -7.7792051675205e-05 9.4380233433096e-21 0.00081645309865108" pbc="T T T"
O        4.52609549       5.00000000       4.63122298       0.95866683       0.00000000       0.74585922
H        4.52609549       5.00000000       5.60900076      -0.12627650      -0.00000000      -0.82495285
H        5.47390451       5.00000000       4.39099924      -0.83239033      -0.00000000       0.07909362
3
Lattice="10.0 0.0 0.0 0.0 10.0 0.0 0.0 0.0 10.0" Properties=species:S:1:pos:R:3:forces:R:3 energy=-156.40818602524 free_energy=-156.40818602524 stress="0.00060516788813642 6.852838231369e-20 -0.0002389328036985 6.852838231369e-20 -0.00019427419559059 -2.0367354760268e-19 -0.0002389328036985 -2.0367354760268e-19 0.0057735215615644" pbc="T T T"
O        4.52704145       5.00000000       4.55156208       0.67403795       0.00000000       4.74492505
H        4.52704145       5.00000000       5.69600653       0.05034381       0.00000000      -4.99464453
H        5.47295855       5.00000000       4.30399347      -0.72438175      -0.00000000       0.24971948
3
Lattice="10.0 0.0 0.0 0.0 10.0 0.0 0.0 0.0 10.0" Properties=species:S:1:pos:R:3:forces:R:3 energy=-156.66229638046 free_energy=-156.66229638046 stress="0.0006353956941926 1.7633375141306e-19 -0.00020181575640126 1.7633375141306e-19 -0.00019612601897524 -1.7106790042823e-19 -0.00020181575640126 -1.7106790042823e-19 0.0045060850184109" pbc="T T T"
O        4.52704145       5.00000000       4.57933986       0.74440866       0.00000000       3.88496476
H        4.52704145       5.00000000       5.66822875       0.01176093       0.00000000      -4.09540170
H        5.47295855       5.00000000       4.33177125      -0.75616959      -0.00000000       0.21043694
3
Lattice="10.0 0.0 0.0 0.0 10.0 0.0 0.0 0.0 10.0" Properties=species:S:1:pos:R:3:forces:R:3 energy=-155.90996684054 free_energy=-155.90996684054 stress="-0.0099599707296584 -2.0259434020128e-20 0.0027282920880638 -2.0259434020128e-20 -0.00021769645953211 1.164224321926e-19 0.0027282920880638 1.164224321926e-19 -0.0061599326233079" pbc="T T T"
O        4.60330681       5.00000000       4.65098641     -11.74684357       0.00000000      -2.94760331
H        4.60330681       5.00000000       5.51765307      -0.72101092      -0.00000000       6.39237637
H        5.39669319       5.00000000       4.48234693      12.46785449      -0.00000000      -3.44477306
3
Lattice="10.0 0.0 0.0 0.0 10.0 0.0 0.0 0.0 10.0" Properties=species:S:1:pos:R:3:forces:R:3 energy=-156.3952683773 free_energy=-156.3952683773 stress="0.0042217763441334 3.883844570356e-21 -0.00071158903460875 3.883844570356e-21 -0.00020157374500677 -1.5033406057834e-19 -0.00071158903460875 -1.5033406057834e-19 -0.005457602145542" pbc="T T T"
O        4.46834705       5.00000000       4.68399056       4.33189996      -0.00000000      -7.13553978
H        4.46834705       5.00000000       5.55065723      -0.27794655       0.00000000       6.46807366
H        5.53165295       5.00000000       4.44934277      -4.05395341      -0.00000000       0.66746612
3
Lattice="10.0 0.0 0.0 0.0 10.0 0.0 0.0 0.0 10.0" Properties=species:S:1:pos:R:3:forces:R:3 energy=-156.66457905833 free_energy=-156.66457905833 stress="-0.0017899321841896 -1.6389405623991e-19 0.00081660647127252 -1.6389405623991e-19 -0.00020972850062507 7.7986219800432e-20 0.00081660647127252 7.7986219800432e-20 -0.0057581069397444" pbc="T T T"
O        4.54972250       5.00000000       4.66603282      -1.39942010      -0.00000000      -5.49502504
H        4.54972250       5.00000000       5.53269949      -0.50520809      -0.00000000       6.40596632
H        5.45027750       5.00000000       4.46730051       1.90462819       0.00000000      -0.91094129
3
Lattice="10.0 0.0 0.0 0.0 10.0 0.0 0.0 0.0 10.0" Properties=species:S:1:pos:R:3:forces:R:3 energy=-156.30952561761 free_energy=-156.30952561761 stress="0.0053269260839841 1.4251667708521e-19 -0.0011655674236148 1.4251667708521e-19 -0.00019040124483422 3.9973176588231e-20 -0.0011655674236148 3.9973176588231e-20 0.0030245256547317" pbc="T T T"
O        4.44122190       5.00000000       4.60664314       4.86858561       0.00000000       1.63908287
H        4.44122190       5.00000000       5.63997648      -0.02916630      -0.00000000      -2.68013810
H        5.55877810       5.00000000       4.36002352      -4.83941931      -0.00000000       1.04105524
3
Lattice="10.0 0.0 0.0 0.0 10.0 0.0 0.0 0.0 10.0" Properties=species:S:1:pos:R:3:forces:R:3 energy=-152.98932514384 free_energy=-152.98932514384 stress="-0.025126344158254 -1.7339157536844e-19 0.0057206226307952 -1.7339157536844e-19 -0.00021204824965792 -1.2134308065855e-19 0.0057206226307952 -1.2134308065855e-19 0.0044893440444298" pbc="T T T"
O        4.65764834       5.00000000       4.50054687     -36.24683635      -0.00000000      13.39185473
H        4.65764834       5.00000000       5.64499131      -0.34475208       0.00000000      -5.02980649
H        5.34235166       5.00000000       4.35500869      36.59158843       0.00000000      -8.36204824
3
Lattice="10.0 0.0 0.0 0.0 10.0 0.0 0.0 0.0 10.0" Properties=species:S:1:pos:R:3:forces:R:3 energy=-156.06574723849 free_energy=-156.06574723849 stress="-0.0099566893502906 -2.6150027658712e-19 0.0026036413654339 -2.6150027658712e-19 -0.00020799715830773 -4.2362381645601e-20 0.0026036413654339 -4.2362381645601e-20 0.0022767079367726" pbc="T T T"
O        4.60466263       5.00000000       4.57379699     -12.18128372      -0.00000000       6.11243217
H        4.60466263       5.00000000       5.60713033      -0.32884072       0.00000000      -2.81303870
H        5.39533737       5.00000000       4.39286967      12.51012444       0.00000000      -3.29939347
3
Lattice="10.0 0.0 0.0 0.0 10.0 0.0 0.0 0.0 10.0" Properties=species:S:1:pos:R:3:forces:R:3 energy=-156.07655428114 free_energy=-156.07655428114 stress="-0.0097494822959933 -2.8116755505357e-20 0.0028228174999546 -2.8116755505357e-20 -0.00020876769934799 -2.6035938066598e-20 0.0028228174999546 -2.6035938066598e-20 0.0021674137763725" pbc="T T T"
O        4.60846771       5.00000000       4.58905831     -12.16525816      -0.00000000       6.47062827
H        4.60846771       5.00000000       5.62239165      -0.20142259      -0.00000000      -2.85928755
H        5.39153229       5.00000000       4.37760835      12.36668075       0.00000000      -3.61134073
3
Lattice="10.0 0.0 0.0 0.0 10.0 0.0 0.0 0.0 10.0" Properties=species:S:1:pos:R:3:forces:R:3 energy=-156.95740793968 free_energy=-156.95740793968 stress="0.00070920493962599 1.2370422489078e-19 -4.3924196601523e-05 1.2370422489078e-19 -0.00020043204808973 5.3984165167484e-20 -4.3924196601523e-05 5.3984165167484e-20 0.00079725039874302" pbc="T T T"
O        4.52517805       5.00000000       4.62754332       0.98551922      -0.00000000       0.77314112
H        4.52517805       5.00000000       5.60532109      -0.15420966      -0.00000000      -0.81641060
H        5.47482195       5.00000000       4.39467891      -0.83130955      -0.00000000       0.04326947
3
Lattice="10.0 0.0 0.0 0.0 10.0 0.0 0.0 0.0 10.0" Properties=species:S:1:pos:R:3:forces:R:3 energy=-156.14423687972 free_energy=-156.14423687972 stress="0.0053575051433076 1.37485105932e-19 -0.0012300567280771 1.37485105932e-19 -0.00020026231229691 -2.2510443617105e-19 -0.0012300567280771 -2.2510443617105e-19 -0.005298504119144" pbc="T T T"
O        4.44424249       5.00000000       4.70294527       5.02196735      -0.00000000      -7.56650711
H        4.44424249       5.00000000       5.56961194      -0.12367723       0.00000000       6.46147282
H        5.55575751       5.00000000       4.43038806      -4.89829013      -0.00000000       1.10503429
3
Lattice="10.0 0.0 0.0 0.0 10.0 0.0 0.0 0.0 10.0" Properties=species:S:1:pos:R:3:forces:R:3 energy=-155.88082983727 free_energy=-155.88082983727 stress="-0.0096937314861225 -2.0671684148242e-19 0.0028557921190909 -2.0671684148242e-19 -0.00020701885580389 -9.2370932377175e-20 0.0028557921190909 -9.2370932377175e-20 0.0037209200521622" pbc="T T T"
O        4.61015498       5.00000000       4.56734182     -12.26116291      -0.00000000       7.85716034
H        4.61015498       5.00000000       5.65623071      -0.08780318       0.00000000      -4.18774941
H        5.38984502       5.00000000       4.34376929      12.34896609       0.00000000      -3.66941093
3
Lattice="10.0 0.0 0.0 0.0 10.0 0.0 0.0 0.0 10.0" Properties=species:S:1:pos:R:3:forces:R:3 energy=-155.32237607472 free_energy=-155.32237607472 stress="-0.0097925186657118 9.887324342888e-21 0.0027246516209145 9.887324342888e-21 -0.00020353874428049 -2.9864052749765e-20 0.0027246516209145 -2.9864052749765e-20 0.0060111450619697" pbc="T T T"
O        4.60929959       5.00000000       4.50875889     -12.43364790       0.00000000       9.15145081
H        4.60929959       5.00000000       5.70875889      -0.01483357      -0.00000000      -5.65763329
H        5.39070041       5.00000000       4.29124111      12.44848147       0.00000000      -3.49381752
3
Lattice="10.0 0.0 0.0 0.0 10.0 0.0 0.0 0.0 10.0" Properties=species:S:1:pos:R:3:forces:R:3 energy=-156.69858265783 free_energy=-156.69858265783 stress="-0.0052516866883638 1.401313362413e-19 0.0015385112104061 1.401313362413e-19 -0.00020683228662757 -7.9362315664799e-20 0.0015385112104061 -7.9362315664799e-20 0.00044592172579231" pbc="T T T"
O        4.57834722       5.00000000       4.61104466      -5.83005037       0.00000000       2.68591481
H        4.57834722       5.00000000       5.58882243      -0.31692823      -0.00000000      -0.85610460
H        5.42165278       5.00000000       4.41117757       6.14697861      -0.00000000      -1.82981021
3
Lattice="10.0 0.0 0.0 0.0 10.0 0.0 0.0 0.0 10.0" Properties=species:S:1:pos:R:3:forces:R:3 energy=-156.5867035475 free_energy=-156.5867035475 stress="-0.0053519752893289 2.6418878705581e-20 0.001449937663237 2.6418878705581e-20 -0.00020372656185567 -1.7452791131303e-20 0.001449937663237 -1.7452791131303e-20 0.0025272552280289" pbc="T T T"
O        4.57613604       5.00000000       4.57342840      -5.91761874       0.00000000       4.49063875
H        4.57613604       5.00000000       5.60676173      -0.31592075      -0.00000000      -2.77479344
H        5.42386396       5.00000000       4.39323827       6.23353949      -0.00000000      -1.71584531
3
Lattice="10.0 0.0 0.0 0.0 10.0 0.0 0.0 0.0 10.0" Properties=species:S:1:pos:R:3:forces:R:3 energy=-156.66108830435 free_energy=-156.66108830435 stress="0.00062563643963787 2.0932602475084e-19 -0.00029664375710228 2.0932602475084e-19 -0.00019687776345483 -2.1786823095781e-19 -0.00029664375710228 -2.1786823095781e-19 0.0045649290918295" pbc="T T T"
O        4.53004984       5.00000000       4.59031160       0.66602464       0.00000000       3.80277169
H        4.53004984       5.00000000       5.67920049       0.08457852       0.00000000      -4.11546817
H        5.46995016       5.00000000       4.32079951      -0.75060316      -0.00000000       0.31269648
3
Lattice="10.0 0.0 0.0 0.0 10.0 0.0 0.0 0.0 10.0" Properties=species:S:1:pos:R:3:forces:R:3 energy=-156.93086964384 free_energy=-156.93086964384 stress="-0.0018047891321824 -1.1765114979436e-19 0.00061194386702334 -1.1765114979436e-19 -0.00020382177526232 -3.2957603642838e-20 0.00061194386702334 -3.2957603642838e-20 0.00066652755371982" pbc="T T T"
O        4.55391409       5.00000000       4.62786222      -1.77739835      -0.00000000       1.55000225
H        4.55391409       5.00000000       5.60563999      -0.16335895      -0.00000000      -0.85985942
H        5.44608591       5.00000000       4.39436001       1.94075730       0.00000000      -0.69014283
3
Lattice="10.0 0.0 0.0 0.0 10.0 0.0 0.0 0.0 10.0" Properties=species:S:1:pos:R:3:forces:R:3 energy=-155.19615594438 free_energy=-155.19615594438 stress="0.00083550478034279 1.9434533266658e-19 0.00030972607892482 1.9434533266658e-19 -0.00021494253048578 -2.1552916032658e-19 0.00030972607892482 -2.1552916032658e-19 -0.017247589098979" pbc="T T T"
O        4.52259735       5.00000000       4.72757429       1.64327981       0.00000000     -22.39639882
H        4.52259735       5.00000000       5.48312985      -0.67980949       0.00000000      22.72374786
H        5.47740265       5.00000000       4.51687015      -0.96347032      -0.00000000      -0.32734904
3
Lattice="10.0 0.0 0.0 0.0 10.0 0.0 0.0 0.0 10.0" Properties=species:S:1:pos:R:3:forces:R:3 energy=-156.66011262184 free_energy=-156.66011262184 stress="0.0006429550457069 1.4384184879801e-19 -3.7001871911987e-05 1.4384184879801e-19 -0.00019500639875218 -2.0640489357962e-19 -3.7001871911987e-05 -2.0640489357962e-19 0.0044147625855442" pbc="T T T"
O        4.52259735       5.00000000       4.56090762       0.87033733      -0.00000000       4.02538444
H        4.52259735       5.00000000       5.64979651      -0.11333429       0.00000000      -4.06118626
H        5.47740265       5.00000000       4.35020349      -0.75700303      -0.00000000       0.03580182
3
Lattice="10.0 0.0 0.0 0.0 10.0 0.0 0.0 0.0 10.0" Properties=species:S:1:pos:R:3:forces:R:3 energy=-156.01590004497 free_energy=-156.01590004497 stress="0.0025258015685874 -6.6212825224627e-20 -0.00068089072461206 -6.6212825224627e-20 -0.00018922271054569 -1.2205672844285e-21 -0.00068089072461206 -1.2205672844285e-21 0.0068419378995699" pbc="T T T"
O        4.49726015       5.00000000       4.51915153       2.54390195       0.00000000       4.89555505
H        4.49726015       5.00000000       5.71915153       0.05041577      -0.00000000      -5.57058931
H        5.50273985       5.00000000       4.28084847      -2.59431771      -0.00000000       0.67503426
3
Lattice="10.0 0.0 0.0 0.0 10.0 0.0 0.0 0.0 10.0" Properties=species:S:1:pos:R:3:forces:R:3 energy=-154.91191892438 free_energy=-154.91191892438 stress="-0.015847747790983 -9.6708898356336e-20 0.0046922243925653 -9.6708898356336e-20 -0.00021111017089827 -1.3488663359436e-19 0.0046922243925653 -1.3488663359436e-19 0.0032082529434099" pbc="T T T"
O        4.63685669       5.00000000       4.55968522     -21.57324907      -0.00000000      10.67506671
H        4.63685669       5.00000000       5.64857411      -0.15386950       0.00000000      -4.20737899
H        5.36314331       5.00000000       4.35142589      21.72711856       0.00000000      -6.46768772
3
Lattice="10.0 0.0 0.0 0.0 10.0 0.0 0.0 0.0 10.0" Properties=species:S:1:pos:R:3:forces:R:3 energy=-155.61077826157 free_energy=-155.61077826157 stress="-0.010084728090499 -2.3423377744978e-21 0.0024009780257839 -2.3423377744978e-21 -0.00020347869115686 -1.3044310325711e-19 0.0024009780257839 -1.3044310325711e-19 0.0051840642820214" pbc="T T T"
O        4.60330681       5.00000000       4.51209752     -12.39284573      -0.00000000       8.04036851
H        4.60330681       5.00000000       5.65654196      -0.23672348       0.00000000      -5.00741560
H        5.39669319       5.00000000       4.34345804      12.62956921       0.00000000      -3.03295291
3
Lattice="10.0 0.0 0.0 0.0 10.0 0.0 0.0 0.0 10.0" Properties=species:S:1:pos:R:3:forces:R:3 energy=-155.09707842854 free_energy=-155.09707842854 stress="-0.016228628679194 -1.0153447193455e-19 0.0042155203961627 -1.0153447193455e-19 -0.00021240319251253 5.4986761268867e-20 0.0042155203961627 5.4986761268867e-20 0.0018950045027118" pbc="T T T"
O        4.63240527       5.00000000       4.57045488     -21.60965972      -0.00000000       8.57982532
H        4.63240527       5.00000000       5.60378822      -0.37226036      -0.00000000      -2.83904256
H        5.36759473       5.00000000       4.39621178      21.98192008       0.00000000      -5.74078276
3
Lattice="10.0 0.0 0.0 0.0 10.0 0.0 0.0 0.0 10.0" Properties=species:S:1:pos:R:3:forces:R:3 energy=-156.0779226396 free_energy=-156.0779226396 stress="0.0061555851379972 -3.6007802001852e-20 -0.00183613726159 -3.6007802001852e-20 -0.00019618932640973 8.2041492711655e-20 -0.00183613726159 8.2041492711655e-20 -0.0014497961131424" pbc="T T T"
O        4.42197747       5.00000000       4.69979246       5.29193085       0.00000000      -3.71585524
H        4.42197747       5.00000000       5.62201468       0.10493395      -0.00000000       2.12905777
H        5.57802253       5.00000000       4.37798532      -5.39686479       0.00000000       1.58679747
3
Lattice="10.0 0.0 0.0 0.0 10.0 0.0 0.0 0.0 10.0" Properties=species:S:1:pos:R:3:forces:R:3 energy=-156.63126074226 free_energy=-156.63126074226 stress="-0.0018686991112387 7.589538905063e-20 0.00050011989190814 7.589538905063e-20 -0.00019935453758342 -1.7714211324368e-19 0.00050011989190814 -1.7714211324368e-19 0.0043472136188789" pbc="T T T"
O        4.55483315       5.00000000       4.57576341      -2.00101897      -0.00000000       4.69169748
H        4.55483315       5.00000000       5.66465230      -0.01541789       0.00000000      -4.12574487
H        5.44516685       5.00000000       4.33534770       2.01643686      -0.00000000      -0.56595261
3
Lattice="10.0 0.0 0.0 0.0 10.0 0.0 0.0 0.0 10.0" Properties=species:S:1:pos:R:3:forces:R:3 energy=-155.19205320771 free_energy=-155.19205320771 stress="0.00082970296609481 1.8472915696178e-19 0.00034547900941039 1.8472915696178e-19 -0.00021487195571895 -2.4172643701757e-19 0.00034547900941039 -2.4172643701757e-19 -0.017261447194086" pbc="T T T"
O        4.52179451       5.00000000       4.72386794       1.67145027       0.00000000     -22.36983652
H        4.52179451       5.00000000       5.47942349      -0.71553293       0.00000000      22.73402570
H        5.47820549       5.00000000       4.52057651      -0.95591734      -0.00000000      -0.36418918
3
Lattice="10.0 0.0 0.0 0.0 10.0 0.0 0.0 0.0 10.0" Properties=species:S:1:pos:R:3:forces:R:3 energy=-155.93530150593 free_energy=-155.93530150593 stress="-0.005080684156608 1.6818175460694e-19 0.0017731440180694 1.6818175460694e-19 -0.00021800471044235 -2.4238409608753e-19 0.0017731440180694 -2.4238409608753e-19 -0.010901844831645" pbc="T T T"
O        4.58078674       5.00000000       4.70416235      -5.40620188      -0.00000000     -10.72318166
H        4.58078674       5.00000000       5.51527346      -0.56964084       0.00000000      12.84322312
H        5.41921326       5.00000000       4.48472654       5.97584271      -0.00000000      -2.12004146
3
Lattice="10.0 0.0 0.0 0.0 10.0 0.0 0.0 0.0 10.0" Properties=species:S:1:pos:R:3:forces:R:3 energy=-153.00453011921 free_energy=-153.00453011921 stress="-0.024563353217419 -1.1474087411604e-19 0.0066595179580653 -1.1474087411604e-19 -0.00021295084125408 -6.983819939592e-20 0.0066595179580653 -6.983819939592e-20 0.0040331036935786" pbc="T T T"
O        4.66140467       5.00000000       4.51639609     -35.94673460      -0.00000000      14.92186376
H        4.66140467       5.00000000       5.66084053      -0.21794519       0.00000000      -5.08071399
H        5.33859533       5.00000000       4.33915947      36.16467979       0.00000000      -9.84114978
3
Lattice="10.0 0.0 0.0 0.0 10.0 0.0 0.0 0.0 10.0" Properties=species:S:1:pos:R:3:forces:R:3 energy=-155.84619990772 free_energy=-155.84619990772 stress="0.0063314810260339 -1.6630254188185e-21 -0.0013583549037618 -1.6630254188185e-21 -0.00019823335871871 -1.6315774973619e-19 -0.0013583549037618 -1.6315774973619e-19 -0.0053171075700045" pbc="T T T"
O        4.41511732       5.00000000       4.70050332       5.61429642      -0.00000000      -7.65348458
H        4.41511732       5.00000000       5.56716998      -0.12934490       0.00000000       6.49390457
H        5.58488268       5.00000000       4.43283002      -5.48495152      -0.00000000       1.15958001
3
Lattice="10.0 0.0 0.0 0.0 10.0 0.0 0.0 0.0 10.0" Properties=species:S:1:pos:R:3:forces:R:3 energy=-156.17712951315 free_energy=-156.17712951315 stress="0.00081931937393058 1.5958041799442e-19 0.00013596090236588 1.5958041799442e-19 -0.00021089715701254 -1.9167810505831e-19 0.00013596090236588 -1.9167810505831e-19 -0.010505913840413" pbc="T T T"
O        4.52517805       5.00000000       4.71087665       1.39113430      -0.00000000     -12.74850730
H        4.52517805       5.00000000       5.52198776      -0.44122707       0.00000000      12.89467032
H        5.47482195       5.00000000       4.47801224      -0.94990724      -0.00000000      -0.14616301
3
Lattice="10.0 0.0 0.0 0.0 10.0 0.0 0.0 0.0 10.0" Properties=species:S:1:pos:R:3:forces:R:3 energy=-153.44851724982 free_energy=-153.44851724982 stress="0.0028002995446951 -2.2406360659975e-20 -0.0001807669214866 -2.2406360659975e-20 -0.00021658400040955 8.7158267236642e-21 -0.0001807669214866 8.7158267236642e-21 -0.026206617095746" pbc="T T T"
O        4.49635102       5.00000000       4.76524823       3.56263376       0.00000000     -37.67842151
H        4.49635102       5.00000000       5.46524823      -0.69041088      -0.00000000      37.50095109
H        5.50364898       5.00000000       4.53475177      -2.87222288      -0.00000000       0.17747042
3
Lattice="10.0 0.0 0.0 0.0 10.0 0.0 0.0 0.0 10.0" Properties=species:S:1:pos:R:3:forces:R:3 energy=-153.44062523867 free_energy=-153.44062523867 stress="0.00280203540093 -4.991907470373e-20 -8.2536976892799e-05 -4.991907470373e-20 -0.00021642578779575 -4.6091346630836e-21 -8.2536976892799e-05 -4.6091346630836e-21 -0.026245351026134" pbc="T T T"
O        4.49462374       5.00000000       4.75742104       3.62816031       0.00000000     -37.59922693
H        4.49462374       5.00000000       5.45742104      -0.76382521      -0.00000000      37.51958155
H        5.50537626       5.00000000       4.54257896      -2.86433510       0.00000000       0.07964538
3
Lattice="10.0 0.0 0.0 0.0 10.0 0.0 0.0 0.0 10.0" Properties=species:S:1:pos:R:3:forces:R:3 energy=-152.69477243523 free_energy=-152.69477243523 stress="-0.025054148931988 -3.6630405915804e-20 0.0058245968838262 -3.6630405915804e-20 -0.00021053694488372 7.6491879333075e-20 0.0058245968838262 7.6491879333075e-20 0.0054244767594362" pbc="T T T"
O        4.65822311       5.00000000       4.47542250     -36.28980278      -0.00000000      14.15938802
H        4.65822311       5.00000000       5.67542250      -0.25911942      -0.00000000      -5.63084134
H        5.34177689       5.00000000       4.32457750      36.54892220       0.00000000      -8.52854668
3
Lattice="10.0 0.0 0.0 0.0 10.0 0.0 0.0 0.0 10.0" Properties=species:S:1:pos:R:3:forces:R:3 energy=-156.15141556303 free_energy=-156.15141556303 stress="-0.001720281325268 -7.9818027098392e-20 0.00083635279643088 -7.9818027098392e-20 -0.00021409591399863 -1.5745478868338e-19 0.00083635279643088 -1.5745478868338e-19 -0.010668831312624" pbc="T T T"
O        4.55215657       5.00000000       4.70426118      -1.30211344      -0.00000000     -11.94010723
H        4.55215657       5.00000000       5.51537229      -0.53428034       0.00000000      12.87800038
H        5.44784343       5.00000000       4.48462771       1.83639378       0.00000000      -0.93789315
3
Lattice="10.0 0.0 0.0 0.0 10.0 0.0 0.0 0.0 10.0" Properties=species:S:1:pos:R:3:forces:R:3 energy=-153.33516828718 free_energy=-153.33516828718 stress="-0.0049875011618874 -2.2926828477964e-19 0.001950818550809 -2.2926828477964e-19 -0.0002272591483084 8.7968499236325e-20 0.001950818550809 8.7968499236325e-20 -0.026756756695297" pbc="T T T"
O        4.58253929       5.00000000       4.76620813      -5.05139151      -0.00000000     -35.10572568
H        4.58253929       5.00000000       5.46620813      -0.83477830      -0.00000000      37.44719110
H        5.41746071       5.00000000       4.53379187       5.88616982       0.00000000      -2.34146542
3
Lattice="10.0 0.0 0.0 0.0 10.0 0.0 0.0 0.0 10.0" Properties=species:S:1:pos:R:3:forces:R:3 energy=-156.56026213207 free_energy=-156.56026213207 stress="0.0025969782324239 2.4897936330054e-20 -0.00046985211500138 2.4897936330054e-20 -0.00019213717195726 -1.177481152409e-19 -0.00046985211500138 -1.177481152409e-19 0.0044818420982369" pbc="T T T"
O        4.49462374       5.00000000       4.56297660       2.74484393      -0.00000000       3.57270763
H        4.49462374       5.00000000       5.65186548      -0.09285706       0.00000000      -4.03538019
H        5.50537626       5.00000000       4.34813452      -2.65198687      -0.00000000       0.46267256
3
Lattice="10.0 0.0 0.0 0.0 10.0 0.0 0.0 0.0 10.0" Properties=species:S:1:pos:R:3:forces:R:3 energy=-155.87259748533 free_energy=-155.87259748533 stress="-0.0099454053634326 -9.8103586400506e-20 0.002591463619841 -9.8103586400506e-20 -0.00020589186281181 -8.9213729478292e-20 0.002591463619841 -8.9213729478292e-20 0.0038609625364768" pbc="T T T"
O        4.60537625       5.00000000       4.54908310     -12.28962420      -0.00000000       7.42832461
H        4.60537625       5.00000000       5.63797199      -0.22923335       0.00000000      -4.13825490
H        5.39462375       5.00000000       4.36202801      12.51885755       0.00000000      -3.29006971
3
Lattice="10.0 0.0 0.0 0.0 10.0 0.0 0.0 0.0 10.0" Properties=species:S:1:pos:R:3:forces:R:3 energy=-153.45887249396 free_energy=-153.45887249396 stress="0.0027918162679727 3.0097906461784e-20 -0.00032543498199705 3.0097906461784e-20 -0.00021687203028137 4.7937763870543e-20 -0.00032543498199705 4.7937763870543e-20 -0.026143230039758" pbc="T T T"
O        4.49916910       5.00000000       4.77693641       3.46215579       0.00000000     -37.79504385
H        4.49916910       5.00000000       5.47693641      -0.58260136      -0.00000000      37.47210459
H        5.50083090       5.00000000       4.52306359      -2.87955444      -0.00000000       0.32293925
3
Lattice="10.0 0.0 0.0 0.0 10.0 0.0 0.0 0.0 10.0" Properties=species:S:1:pos:R:3:forces:R:3 energy=-154.90438879929 free_energy=-154.90438879929 stress="0.0042400206049993 -9.5273438614857e-20 -0.00083075122397598 -9.5273438614857e-20 -0.00021032832093612 -9.0320857726092e-20 -0.00083075122397598 -9.0320857726092e-20 -0.016950255249068" pbc="T T T"
O        4.47224270       5.00000000       4.75598317       4.46262064      -0.00000000     -23.49651905
H        4.47224270       5.00000000       5.51153872      -0.35666974       0.00000000      22.71094632
H        5.52775730       5.00000000       4.48846128      -4.10595090      -0.00000000       0.78557274
3
Lattice="10.0 0.0 0.0 0.0 10.0 0.0 0.0 0.0 10.0" Properties=species:S:1:pos:R:3:forces:R:3 energy=-156.37500876537 free_energy=-156.37500876537 stress="0.0052394973405712 6.8369387490154e-20 -0.0015405822155875 6.8369387490154e-20 -0.00019774970264201 -1.976814301454e-20 -0.0015405822155875 -1.976814301454e-20 -0.0015146346398985" pbc="T T T"
O        4.44873778       5.00000000       4.69234322       4.76949633      -0.00000000      -3.50625321
H        4.44873778       5.00000000       5.61456544       0.06037510      -0.00000000       2.11047654
H        5.55126222       5.00000000       4.38543456      -4.82987143      -0.00000000       1.39577667
3
Lattice="10.0 0.0 0.0 0.0 10.0 0.0 0.0 0.0 10.0" Properties=species:S:1:pos:R:3:forces:R:3 energy=-156.11170534528 free_energy=-156.11170534528 stress="0.0061550885701871 -3.1712391226734e-20 -0.0018083218243831 -3.1712391226734e-20 -0.00019289817040551 -1.3556680549505e-20 -0.0018083218243831 -1.3556680549505e-20 0.0012277592975886" pbc="T T T"
O        4.42074674       5.00000000       4.66752615       5.25916921      -0.00000000      -0.80648598
H        4.42074674       5.00000000       5.64530393       0.12420004      -0.00000000      -0.75283053
H        5.57925326       5.00000000       4.35469607      -5.38336925      -0.00000000       1.55931651
3
Lattice="10.0 0.0 0.0 0.0 10.0 0.0 0.0 0.0 10.0" Properties=species:S:1:pos:R:3:forces:R:3 energy=-153.25556772178 free_energy=-153.25556772178 stress="-0.024838284339586 -8.590285334124e-20 0.0062552561763832 -8.590285334124e-20 -0.00021440349807603 -1.3546625504533e-19 0.0062552561763832 -1.3546625504533e-19 0.0030080649258181" pbc="T T T"
O        4.65943430       5.00000000       4.53627111     -36.00415865      -0.00000000      13.35647135
H        4.65943430       5.00000000       5.62516000      -0.35378201       0.00000000      -4.16604841
H        5.34056570       5.00000000       4.37484000      36.35794066       0.00000000      -9.19042294
3
Lattice="10.0 0.0 0.0 0.0 10.0 0.0 0.0 0.0 10.0" Properties=species:S:1:pos:R:3:forces:R:3 energy=-156.63100939151 free_energy=-156.63100939151 stress="-0.0018770782921004 -9.6420932694774e-20 0.00051400548809982 -9.6420932694774e-20 -0.00019912587705207 -1.3036034435009e-19 0.00051400548809982 -1.3036034435009e-19 0.0043380473110177" pbc="T T T"
O        4.55391409       5.00000000       4.57230666      -1.98194926      -0.00000000       4.69887092
H        4.55391409       5.00000000       5.66119555      -0.03970418       0.00000000      -4.11852217
H        5.44608591       5.00000000       4.33880445       2.02165343       0.00000000      -0.58034875
3
Lattice="10.0 0.0 0.0 0.0 10.0 0.0 0.0 0.0 10.0" Properties=species:S:1:pos:R:3:forces:R:3 energy=-156.56163043458 free_energy=-156.56163043458 stress="0.0041012071388857 3.720161729271e-20 -0.00097573046623366 3.720161729271e-20 -0.00019280219733777 -1.0142817465907e-19 -0.00097573046623366 -1.0142817465907e-19 0.0030287031091246" pbc="T T T"
O        4.47023113       5.00000000       4.60889086       3.96747025      -0.00000000       1.79086615
H        4.47023113       5.00000000       5.64222420      -0.01764548       0.00000000      -2.70988269
H        5.52976887       5.00000000       4.35777580      -3.94982477      -0.00000000       0.91901655
3
Lattice="10.0 0.0 0.0 0.0 10.0 0.0 0.0 0.0 10.0" Properties=species:S:1:pos:R:3:forces:R:3 energy=-156.36688048733 free_energy=-156.36688048733 stress="0.0039640754313383 1.1749744560347e-20 -0.0013498348649593 1.1749744560347e-20 -0.00019213231980106 -1.156356779951e-19 -0.0013498348649593 -1.156356779951e-19 0.0048248524363296" pbc="T T T"
O        4.47664641       5.00000000       4.60562478       3.69597666      -0.00000000       2.78342088
H        4.47664641       5.00000000       5.69451367       0.17103917       0.00000000      -4.07127439
H        5.52335359       5.00000000       4.30548633      -3.86701583      -0.00000000       1.28785351
3
Lattice="10.0 0.0 0.0 0.0 10.0 0.0 0.0 0.0 10.0" Properties=species:S:1:pos:R:3:forces:R:3 energy=-156.62970839634 free_energy=-156.62970839634 stress="0.0041514434687779 7.4985832362808e-20 -0.0009430133480341 7.4985832362808e-20 -0.00019866004717708 2.1360127949502e-20 -0.0009430133480341 2.1360127949502e-20 -0.0017279920892609" pbc="T T T"
O        4.47122101       5.00000000       4.66855203       4.11441054       0.00000000      -3.01143325
H        4.47122101       5.00000000       5.59077425      -0.10655562      -0.00000000       2.12147142
H        5.52877899       5.00000000       4.40922575      -4.00785492       0.00000000       0.88996183
3
Lattice="10.0 0.0 0.0 0.0 10.0 0.0 0.0 0.0 10.0" Properties=species:S:1:pos:R:3:forces:R:3 energy=-156.07853073435 free_energy=-156.07853073435 stress="-0.0019720190080865 -1.6651739637028e-19 0.00050159418836936 -1.6651739637028e-19 -0.0001945332491209 -1.8216278219441e-21 0.00050159418836936 -1.8216278219441e-21 0.006572258923254" pbc="T T T"
O        4.54972250       5.00000000       4.49936616      -2.03763258      -0.00000000       6.14611739
H        4.54972250       5.00000000       5.69936616      -0.06966882      -0.00000000      -5.58499984
H        5.45027750       5.00000000       4.30063384       2.10730140       0.00000000      -0.56111755
3
Lattice="10.0 0.0 0.0 0.0 10.0 0.0 0.0 0.0 10.0" Properties=species:S:1:pos:R:3:forces:R:3 energy=-153.45630140352 free_energy=-153.45630140352 stress="-0.024723229011983 -7.8336166835849e-20 0.0064757699061004 -7.8336166835849e-20 -0.00021686130494766 -6.453954040747e-20 0.0064757699061004 -6.453954040747e-20 0.0013213163566946" pbc="T T T"
O        4.66007065       5.00000000       4.56668821     -35.83709723      -0.00000000      12.39069369
H        4.66007065       5.00000000       5.60002154      -0.41709443       0.00000000      -2.85906729
H        5.33992935       5.00000000       4.39997846      36.25419166       0.00000000      -9.53162640
3
Lattice="10.0 0.0 0.0 0.0 10.0 0.0 0.0 0.0 10.0" Properties=species:S:1:pos:R:3:forces:R:3 energy=-156.70303577101 free_energy=-156.70303577101 stress="-0.0052040363174902 -1.1243970323961e-19 0.0015571876630791 -1.1243970323961e-19 -0.0002071299462548 6.6023261439973e-20 0.0015571876630791 6.6023261439973e-20 0.00043854209096512" pbc="T T T"
O        4.57994828       5.00000000       4.61757390      -5.85218779      -0.00000000       2.73437587
H        4.57994828       5.00000000       5.59535168      -0.26151291      -0.00000000      -0.87535701
H        5.42005172       5.00000000       4.40464832       6.11370069       0.00000000      -1.85901886
3
Lattice="10.0 0.0 0.0 0.0 10.0 0.0 0.0 0.0 10.0" Properties=species:S:1:pos:R:3:forces:R:3 energy=-156.74994657093 free_energy=-156.74994657093 stress="0.0026253463692959 5.5714078157055e-20 -0.00042689592457343 5.5714078157055e-20 -0.00019441006929916 -1.0234673458718e-19 -0.00042689592457343 -1.0234673458718e-19 0.002876961331948" pbc="T T T"
O        4.49462374       5.00000000       4.59075437       2.82605572       0.00000000       2.28891425
H        4.49462374       5.00000000       5.62408771      -0.14524148      -0.00000000      -2.70910327
H        5.50537626       5.00000000       4.37591229      -2.68081425      -0.00000000       0.42018902
3
Lattice="10.0 0.0 0.0 0.0 10.0 0.0 0.0 0.0 10.0" Properties=species:S:1:pos:R:3:forces:R:3 energy=-153.53439293618 free_energy=-153.53439293618 stress="-0.0016933693930712 -2.0662152386497e-19 0.0010018211807218 -2.0662152386497e-19 -0.00022305722132948 1.0537400240996e-19 0.0010018211807218 1.0537400240996e-19 -0.026483729009608" pbc="T T T"
O        4.55131820       5.00000000       4.75633954      -0.91389129      -0.00000000     -36.37118570
H        4.55131820       5.00000000       5.45633954      -0.88633035      -0.00000000      37.49156000
H        5.44868180       5.00000000       4.54366046       1.80022164       0.00000000      -1.12037430
3
Lattice="10.0 0.0 0.0 0.0 10.0 0.0 0.0 0.0 10.0" Properties=species:S:1:pos:R:3:forces:R:3 energy=-153.46829256849 free_energy=-153.46829256849 stress="-0.024312827776461 -1.256574448321e-19 0.0070798405762803 -1.256574448321e-19 -0.0002173270383463 -8.3653272913733e-20 0.0070798405762803 -8.3653272913733e-20 0.00098773914795281" pbc="T T T"
O        4.66282019       5.00000000       4.57719375     -35.61820131      -0.00000000      13.40488173
H        4.66282019       5.00000000       5.61052708      -0.32189067       0.00000000      -2.89987166
H        5.33717981       5.00000000       4.38947292      35.94009197       0.00000000     -10.50501007
3
Lattice="10.0 0.0 0.0 0.0 10.0 0.0 0.0 0.0 10.0" Properties=species:S:1:pos:R:3:forces:R:3 energy=-155.8287107788 free_energy=-155.8287107788 stress="0.0062665206768022 -6.7568062297521e-20 -0.0014483902544717 -6.7568062297521e-20 -0.00018637039299684 -1.4580773836863e-19 -0.0014483902544717 -1.4580773836863e-19 0.0046796733366823" pbc="T T T"
O        4.41409675       5.00000000       4.58485128       5.37258614      -0.00000000       2.76818763
H        4.41409675       5.00000000       5.67374017       0.04176101       0.00000000      -4.00229911
H        5.58590325       5.00000000       4.32625983      -5.41434716       0.00000000       1.23411148
3
Lattice="10.0 0.0 0.0 0.0 10.0 0.0 0.0 0.0 10.0" Properties=species:S:1:pos:R:3:forces:R:3 energy=-156.18229899167 free_energy=-156.18229899167 stress="0.00082374506771618 1.823185748726e-19 6.6732937825167e-05 1.823185748726e-19 -0.00021115593929834 -2.7472151892147e-19 6.6732937825167e-05 -2.7472151892147e-19 -0.010469772387044" pbc="T T T"
O        4.52704145       5.00000000       4.71822875       1.33401690       0.00000000     -12.79997671
H        4.52704145       5.00000000       5.52933986      -0.37594604       0.00000000      12.87352386
H        5.47295855       5.00000000       4.47066014      -0.95807087      -0.00000000      -0.07354715
3
Lattice="10.0 0.0 0.0 0.0 10.0 0.0 0.0 0.0 10.0" Properties=species:S:1:pos:R:3:forces:R:3 energy=-156.62647099417 free_energy=-156.62647099417 stress="0.0041898324280417 -4.9972822194941e-20 -0.00076508959179954 -4.9972822194941e-20 -0.00019805952181638 5.2214026964193e-20 -0.00076508959179954 5.2214026964193e-20 -0.0018185213544379" pbc="T T T"
O        4.46834705       5.00000000       4.65621278       4.21719529       0.00000000      -2.86391564
H        4.46834705       5.00000000       5.57843501      -0.19523234      -0.00000000       2.14620196
H        5.53165295       5.00000000       4.42156499      -4.02196295      -0.00000000       0.71771368
3
Lattice="10.0 0.0 0.0 0.0 10.0 0.0 0.0 0.0 10.0" Properties=species:S:1:pos:R:3:forces:R:3 energy=-153.57209193822 free_energy=-153.57209193822 stress="-0.024503032044543 -1.3956876047828e-19 0.0068518151883757 -1.3956876047828e-19 -0.00021985879132127 1.2240079425175e-19 0.0068518151883757 1.2240079425175e-19 -0.00092648873187936" pbc="T T T"
O        4.66140467       5.00000000       4.59972942     -35.59986122      -0.00000000      11.05418951
H        4.66140467       5.00000000       5.57750720      -0.46868900      -0.00000000      -0.93008473
H        5.33859533       5.00000000       4.42249280      36.06855022       0.00000000     -10.12410478
3
Lattice="10.0 0.0 0.0 0.0 10.0 0.0 0.0 0.0 10.0" Properties=species:S:1:pos:R:3:forces:R:3 energy=-154.63876348497 free_energy=-154.63876348497 stress="-0.016397205255219 -1.7055857584725e-19 0.0039116965750844 -1.7055857584725e-19 -0.00020788813943201 -1.5349239309565e-19 0.0039116965750844 -1.5349239309565e-19 0.0048509695165313" pbc="T T T"
O        4.63109795       5.00000000       4.50918619     -21.86655858      -0.00000000      10.33819172
H        4.63109795       5.00000000       5.65363064      -0.26852066       0.00000000      -5.02904313
H        5.36890205       5.00000000       4.34636936      22.13507924       0.00000000      -5.30914859
3
Lattice="10.0 0.0 0.0 0.0 10.0 0.0 0.0 0.0 10.0" Properties=species:S:1:pos:R:3:forces:R:3 energy=-152.78031255113 free_energy=-152.78031255113 stress="-0.024878882121836 -1.1820025271639e-19 0.0065168176796093 -1.1820025271639e-19 -0.00023212571916037 -2.1214055967637e-19 0.0065168176796093 -2.1214055967637e-19 -0.012021438995037" pbc="T T T"
O        4.65881844       5.00000000       4.67251582     -35.29647872      -0.00000000      -3.37903217
H        4.65881844       5.00000000       5.48362693      -1.03904159       0.00000000      12.93468933
H        5.34118156       5.00000000       4.51637307      36.33552031       0.00000000      -9.55565717
3
Lattice="10.0 0.0 0.0 0.0 10.0 0.0 0.0 0.0 10.0" Properties=species:S:1:pos:R:3:forces:R:3 energy=-150.19968916344 free_energy=-150.19968916344 stress="-0.024287669049848 -9.1936633255718e-20 0.0076359064302932 -9.1936633255718e-20 -0.00024270478280984 8.6618311985591e-20 0.0076359064302932 8.6618311985591e-20 -0.028460279944287" pbc="T T T"
O        4.66282019       5.00000000       4.74386041     -34.59118868      -0.00000000     -26.27387602
H        4.66282019       5.00000000       5.44386041      -1.28751790      -0.00000000      37.60162535
H        5.33717981       5.00000000       4.55613959      35.87870657       0.00000000     -11.32774933
3
Lattice="10.0 0.0 0.0 0.0 10.0 0.0 0.0 0.0 10.0" Properties=species:S:1:pos:R:3:forces:R:3 energy=-153.25244237448 free_energy=-153.25244237448 stress="-0.024931467696526 -1.5474144231656e-19 0.0060989723688302 -1.5474144231656e-19 -0.00021428161952014 -1.1539709444476e-19 0.0060989723688302 -1.1539709444476e-19 0.0030825125490285" pbc="T T T"
O        4.65881844       5.00000000       4.53362693     -36.05250631      -0.00000000      13.10142742
H        4.65881844       5.00000000       5.62251582      -0.37660348       0.00000000      -4.15660526
H        5.34118156       5.00000000       4.37748418      36.42910980       0.00000000      -8.94482216
3
Lattice="10.0 0.0 0.0 0.0 10.0 0.0 0.0 0.0 10.0" Properties=species:S:1:pos:R:3:forces:R:3 energy=-152.69713406741 free_energy=-152.69713406741 stress="-0.024964677035366 -1.4484249228915e-19 0.0059838381149335 -1.4484249228915e-19 -0.00021070017306419 1.0947849671764e-19 0.0059838381149335 1.0947849671764e-19 0.0053520878233133" pbc="T T T"
O        4.65881844       5.00000000       4.47807138     -36.24208035      -0.00000000      14.41537573
H        4.65881844       5.00000000       5.67807138      -0.23926853      -0.00000000      -5.63859705
H        5.34118156       5.00000000       4.32192862      36.48134888       0.00000000      -8.77677868
3
Lattice="10.0 0.0 0.0 0.0 10.0 0.0 0.0 0.0 10.0" Properties=species:S:1:pos:R:3:forces:R:3 energy=-153.55602104812 free_energy=-153.55602104812 stress="-0.0016165409049356 -8.0884223579679e-20 0.00091947117417312 -8.0884223579679e-20 -0.00022327728977382 2.4877142166746e-20 0.00091947117417312 2.4877142166746e-20 -0.026459034434885" pbc="T T T"
O        4.55577898       5.00000000       4.77365737      -1.02855046       0.00000000     -36.39742470
H        4.55577898       5.00000000       5.47365737      -0.70406242      -0.00000000      37.43638048
H        5.44422102       5.00000000       4.52634263       1.73261289       0.00000000      -1.03895578
3
Lattice="10.0 0.0 0.0 0.0 10.0 0.0 0.0 0.0 10.0" Properties=species:S:1:pos:R:3:forces:R:3 energy=-150.18527514938 free_energy=-150.18527514938 stress="-0.024512371245598 -1.1627427310915e-19 0.0073451154622079 -1.1627427310915e-19 -0.00024290542312357 1.6933386401211e-19 0.0073451154622079 1.6933386401211e-19 -0.028281259222263" pbc="T T T"
O        4.66140467       5.00000000       4.73861831     -34.69796676      -0.00000000     -26.78158756
H        4.66140467       5.00000000       5.43861831      -1.36311635      -0.00000000      37.63265000
H        5.33859533       5.00000000       4.56138169      36.06108311       0.00000000     -10.85106244
3
Lattice="10.0 0.0 0.0 0.0 10.0 0.0 0.0 0.0 10.0" Properties=species:S:1:pos:R:3:forces:R:3 energy=-156.12010010168 free_energy=-156.12010010168 stress="0.0052442142345284 5.7754079472449e-20 -0.0014008517727868 5.7754079472449e-20 -0.00018884572484942 -1.2444594499593e-19 -0.0014008517727868 -1.2444594499593e-19 0.0047320491208708" pbc="T T T"
O        4.44424249       5.00000000       4.59183416       4.70585598      -0.00000000       2.76923703
H        4.44424249       5.00000000       5.68072305       0.08475888       0.00000000      -4.02768364
H        5.55575751       5.00000000       4.31927695      -4.79061486      -0.00000000       1.25844661
3
Lattice="10.0 0.0 0.0 0.0 10.0 0.0 0.0 0.0 10.0" Properties=species:S:1:pos:R:3:forces:R:3 energy=-156.66197429857 free_energy=-156.66197429857 stress="0.0041174770233077 1.0332167015332e-19 -0.00099097661449503 1.0332167015332e-19 -0.00019564312534567 -3.6076243547849e-20 -0.00099097661449503 -3.6076243547849e-20 0.0009923679165464" pbc="T T T"
O        4.47122101       5.00000000       4.64077425       4.01676046      -0.00000000      -0.16682144
H        4.47122101       5.00000000       5.61855203      -0.04266145      -0.00000000      -0.76842943
H        5.52877899       5.00000000       4.38144797      -3.97409901      -0.00000000       0.93525087
3
Lattice="10.0 0.0 0.0 0.0 10.0 0.0 0.0 0.0 10.0" Properties=species:S:1:pos:R:3:forces:R:3 energy=-155.91461436885 free_energy=-155.91461436885 stress="-0.0052147453249906 -5.9028339950029e-20 0.0017327645438036 -5.9028339950029e-20 -0.00021771588045431 -1.792041519283e-19 0.0017327645438036 -1.792041519283e-19 -0.010873542129607" pbc="T T T"
O        4.57684765       5.00000000       4.68782469      -5.34194010      -0.00000000     -10.84934907
H        4.57684765       5.00000000       5.49893580      -0.73644843       0.00000000      12.90194040
H        5.42315235       5.00000000       4.50106420       6.07838853      -0.00000000      -2.05259133
3
Lattice="10.0 0.0 0.0 0.0 10.0 0.0 0.0 0.0 10.0" Properties=species:S:1:pos:R:3:forces:R:3 energy=-153.55560357756 free_energy=-153.55560357756 stress="0.00086042172893527 1.3572466750722e-19 0.00034296415469756 1.3572466750722e-19 -0.00021950235559465 -9.4209921798279e-21 0.00034296415469756 -9.4209921798279e-21 -0.02632715865947" pbc="T T T"
O        4.52342893       5.00000000       4.75905208       1.79415813       0.00000000     -37.13537946
H        4.52342893       5.00000000       5.45905208      -0.80164146      -0.00000000      37.49811004
H        5.47657107       5.00000000       4.54094792      -0.99251666      -0.00000000      -0.36273057
3
Lattice="10.0 0.0 0.0 0.0 10.0 0.0 0.0 0.0 10.0" Properties=species:S:1:pos:R:3:forces:R:3 energy=-156.67670466933 free_energy=-156.67670466933 stress="-0.0051692977647456 -1.1408955803225e-19 0.001620323930625 -1.1408955803225e-19 -0.00021020490370991 1.7351147141531e-19 0.001620323930625 1.7351147141531e-19 -0.0022937222759548" pbc="T T T"
O        4.57994828       5.00000000       4.64535168      -5.71647313      -0.00000000      -0.08199179
H        4.57994828       5.00000000       5.56757390      -0.35524350      -0.00000000       2.01608769
H        5.42005172       5.00000000       4.43242610       6.07171663       0.00000000      -1.93409590
3
Lattice="10.0 0.0 0.0 0.0 10.0 0.0 0.0 0.0 10.0" Properties=species:S:1:pos:R:3:forces:R:3 energy=-156.05958417604 free_energy=-156.05958417604 stress="0.0027543390774025 -1.0950278146687e-20 -0.00020847965986805 -1.0950278146687e-20 -0.00020768360290673 -2.4964012488101e-19 -0.00020847965986805 -2.4964012488101e-19 -0.010477252785551" pbc="T T T"
O        4.49462374       5.00000000       4.70186548       3.30253476      -0.00000000     -13.15734837
H        4.49462374       5.00000000       5.51297660      -0.48888886       0.00000000      12.95318566
H        5.50537626       5.00000000       4.48702340      -2.81364589      -0.00000000       0.20416271
3
Lattice="10.0 0.0 0.0 0.0 10.0 0.0 0.0 0.0 10.0" Properties=species:S:1:pos:R:3:forces:R:3 energy=-155.2191198014 free_energy=-155.2191198014 stress="0.000860954782553 1.6545445835816e-19 6.6888227679889e-05 1.6545445835816e-19 -0.00021563284592678 -1.7022253532084e-19 6.6888227679889e-05 -1.7022253532084e-19 -0.017135382902095" pbc="T T T"
O        4.52901868       5.00000000       4.75332883       1.44097245       0.00000000     -22.57532207
H        4.52901868       5.00000000       5.50888439      -0.43843255       0.00000000      22.64931805
H        5.47098132       5.00000000       4.49111561      -1.00253991      -0.00000000      -0.07399599
3
Lattice="10.0 0.0 0.0 0.0 10.0 0.0 0.0 0.0 10.0" Properties=species:S:1:pos:R:3:forces:R:3 energy=-155.0906167463 free_energy=-155.0906167463 stress="-0.016352907201967 -1.243139463521e-19 0.004031770141026 -1.243139463521e-19 -0.00021217657166302 -7.3950469481636e-20 0.004031770141026 -7.3950469481636e-20 0.0019793575344935" pbc="T T T"
O        4.63109795       5.00000000       4.56474175     -21.64968394      -0.00000000       8.29062944
H        4.63109795       5.00000000       5.59807508      -0.42308465       0.00000000      -2.81921720
H        5.36890205       5.00000000       4.40192492      22.07276859       0.00000000      -5.47141224
3
Lattice="10.0 0.0 0.0 0.0 10.0 0.0 0.0 0.0 10.0" Properties=species:S:1:pos:R:3:forces:R:3 energy=-156.62884200651 free_energy=-156.62884200651 stress="0.004165171669109 2.6550843177279e-20 -0.00088422786098004 2.6550843177279e-20 -0.00019845311609886 6.0894417234327e-20 -0.00088422786098004 6.0894417234327e-20 -0.0017589375280923" pbc="T T T"
O        4.47023113       5.00000000       4.66444642       4.14909838       0.00000000      -2.96253190
H        4.47023113       5.00000000       5.58666864      -0.13589052      -0.00000000       2.12975084
H        5.52976887       5.00000000       4.41333136      -4.01320786       0.00000000       0.83278106
3
Lattice="10.0 0.0 0.0 0.0 10.0 0.0 0.0 0.0 10.0" Properties=species:S:1:pos:R:3:forces:R:3 energy=-156.14449954272 free_energy=-156.14449954272 stress="-0.0099007380606051 -2.2513161694234e-19 0.0027376227448638 -2.2513161694234e-19 -0.00021395932503561 5.1516747582882e-20 0.0027376227448638 5.1516747582882e-20 -0.0025367358459966" pbc="T T T"
O        4.60466263       5.00000000       4.62935255     -11.90960865      -0.00000000       1.43715546
H        4.60466263       5.00000000       5.55157477      -0.52766583      -0.00000000       2.03138450
H        5.39533737       5.00000000       4.44842523      12.43727448       0.00000000      -3.46853996
3
Lattice="10.0 0.0 0.0 0.0 10.0 0.0 0.0 0.0 10.0" Properties=species:S:1:pos:R:3:forces:R:3 energy=-154.6519706778 free_energy=-154.6519706778 stress="-0.015873927136543 -1.0697341999688e-19 0.0046419325972848 -1.0697341999688e-19 -0.00020934971308203 -1.3304440801469e-19 0.0046419325972848 -1.3304440801469e-19 0.004470129027907" pbc="T T T"
O        4.63685669       5.00000000       4.53190745     -21.66827681      -0.00000000      11.49078198
H        4.63685669       5.00000000       5.67635189      -0.09586540       0.00000000      -5.09207984
H        5.36314331       5.00000000       4.32364811      21.76414220       0.00000000      -6.39870215
3
Lattice="10.0 0.0 0.0 0.0 10.0 0.0 0.0 0.0 10.0" Properties=species:S:1:pos:R:3:forces:R:3 energy=-155.1069273338 free_energy=-155.1069273338 stress="0.0027537556310797 -4.5389981558784e-20 -0.00048513319848647 -4.5389981558784e-20 -0.0002128495465287 -1.2660861135617e-19 -0.00048513319848647 -1.2660861135617e-19 -0.017003353546208" pbc="T T T"
O        4.50119858       5.00000000       4.75691295       3.22806063      -0.00000000     -23.15933382
H        4.50119858       5.00000000       5.51246851      -0.37674168       0.00000000      22.67501778
H        5.49880142       5.00000000       4.48753149      -2.85131894      -0.00000000       0.48431605
3
Lattice="10.0 0.0 0.0 0.0 10.0 0.0 0.0 0.0 10.0" Properties=species:S:1:pos:R:3:forces:R:3 energy=-155.84696549481 free_energy=-155.84696549481 stress="0.0063103570310789 -7.8645196179528e-20 -0.0014318623814703 -7.8645196179528e-20 -0.00019844915138559 9.9920375488791e-20 -0.0014318623814703 9.9920375488791e-20 -0.0052807632232719" pbc="T T T"
O        4.41617308       5.00000000       4.70503619       5.57633485      -0.00000000      -7.71070959
H        4.41617308       5.00000000       5.57170286      -0.09945333      -0.00000000       6.48604161
H        5.58382692       5.00000000       4.42829714      -5.47688152       0.00000000       1.22466797
3
Lattice="10.0 0.0 0.0 0.0 10.0 0.0 0.0 0.0 10.0" Properties=species:S:1:pos:R:3:forces:R:3 energy=-155.619994225 free_energy=-155.619994225 stress="-0.0098512429672032 -1.3435242243148e-19 0.0026768101654406 -1.3435242243148e-19 -0.00020461160981213 -9.1673449841215e-20 0.0026768101654406 -9.1673449841215e-20 0.0050575607175285" pbc="T T T"
O        4.60765938       5.00000000       4.53046248     -12.37025788      -0.00000000       8.47077818
H        4.60765938       5.00000000       5.67490693      -0.10133762      -0.00000000      -5.05266367
H        5.39234062       5.00000000       4.32509307      12.47159549       0.00000000      -3.41811450
3
Lattice="10.0 0.0 0.0 0.0 10.0 0.0 0.0 0.0 10.0" Properties=species:S:1:pos:R:3:forces:R:3 energy=-156.56113870472 free_energy=-156.56113870472 stress="0.0025413579177619 5.3701041573544e-20 -0.00075236009580798 5.3701041573544e-20 -0.00019353965524151 -2.0038215554968e-19 -0.00075236009580798 -2.0038215554968e-19 0.0046312341116562" pbc="T T T"
O        4.50016880       5.00000000       4.58637306       2.56846283      -0.00000000       3.32294948
H        4.50016880       5.00000000       5.67526195       0.05780606       0.00000000      -4.07352387
H        5.49983120       5.00000000       4.32473805      -2.62626889      -0.00000000       0.75057439
3
Lattice="10.0 0.0 0.0 0.0 10.0 0.0 0.0 0.0 10.0" Properties=species:S:1:pos:R:3:forces:R:3 energy=-156.75308016649 free_energy=-156.75308016649 stress="0.0025741665021328 -5.9623714578881e-20 -0.00071311152361742 -5.9623714578881e-20 -0.00019572910478129 -6.3630576310509e-20 -0.00071311152361742 -6.3630576310509e-20 0.0030284634396649" pbc="T T T"
O        4.50016880       5.00000000       4.61415084       2.64507468      -0.00000000       2.04095964
H        4.50016880       5.00000000       5.64748417       0.01463021       0.00000000      -2.75227501
H        5.49983120       5.00000000       4.35251583      -2.65970489       0.00000000       0.71131537
3
Lattice="10.0 0.0 0.0 0.0 10.0 0.0 0.0 0.0 10.0" Properties=species:S:1:pos:R:3:forces:R:3 energy=-155.86573661817 free_energy=-155.86573661817 stress="-0.010060426108412 -9.177921528794e-20 0.0024544882016714 -9.177921528794e-20 -0.00020541861952852 -1.3973745961973e-19 0.0024544882016714 -1.3973745961973e-19 0.0039189123863967" pbc="T T T"
O        4.60330681       5.00000000       4.53987530     -12.29620148       0.00000000       7.21300243
H        4.60330681       5.00000000       5.62876419      -0.30255440       0.00000000      -4.11273499
H        5.39669319       5.00000000       4.37123581      12.59875588       0.00000000      -3.10026743
3
Lattice="10.0 0.0 0.0 0.0 10.0 0.0 0.0 0.0 10.0" Properties=species:S:1:pos:R:3:forces:R:3 energy=-155.28797074618 free_energy=-155.28797074618 stress="0.0062720782964149 5.4003545023311e-20 -0.001431855680116 5.4003545023311e-20 -0.00018232287504046 -9.6403111839734e-20 -0.001431855680116 -9.6403111839734e-20 0.0069580306656711" pbc="T T T"
O        4.41311144       5.00000000       4.52474701       5.34206094      -0.00000000       4.32476200
H        4.41311144       5.00000000       5.72474701       0.06624104      -0.00000000      -5.54256269
H        5.58688856       5.00000000       4.27525299      -5.40830199      -0.00000000       1.21780069
3
Lattice="10.0 0.0 0.0 0.0 10.0 0.0 0.0 0.0 10.0" Properties=species:S:1:pos:R:3:forces:R:3 energy=-155.31963932425 free_energy=-155.31963932425 stress="0.0063158858267899 -1.1200938860813e-20 -0.0014530221781505 -1.1200938860813e-20 -0.00020255557910754 -2.3096753775592e-19 -0.0014530221781505 -2.3096753775592e-19 -0.01016038738268" pbc="T T T"
O        4.41726397       5.00000000       4.73733852       5.64112052      -0.00000000     -14.21243154
H        4.41726397       5.00000000       5.54844963      -0.14718278       0.00000000      12.96720584
H        5.58273603       5.00000000       4.45155037      -5.49393774      -0.00000000       1.24522570
3
Lattice="10.0 0.0 0.0 0.0 10.0 0.0 0.0 0.0 10.0" Properties=species:S:1:pos:R:3:forces:R:3 energy=-154.4263197224 free_energy=-154.4263197224 stress="-0.016222366562193 -2.3835335360067e-19 0.0044451444911279 -2.3835335360067e-19 -0.00022702380116051 -2.1523952173326e-19 0.0044451444911279 -2.1523952173326e-19 -0.011516749340632" pbc="T T T"
O        4.63174053       5.00000000       4.67871196     -21.00011429      -0.00000000      -6.86152756
H        4.63174053       5.00000000       5.48982307      -0.92421858       0.00000000      12.90276435
H        5.36825947       5.00000000       4.51017693      21.92433287       0.00000000      -6.04123679
3
Lattice="10.0 0.0 0.0 0.0 10.0 0.0 0.0 0.0 10.0" Properties=species:S:1:pos:R:3:forces:R:3 energy=-156.14584920644 free_energy=-156.14584920644 stress="-0.0052790598796057 8.2836837853989e-20 0.0014158497347091 8.2836837853989e-20 -0.00020075291571367 -1.4779388376778e-19 0.0014158497347091 -1.4779388376778e-19 0.0053728919134129" pbc="T T T"
O        4.58078674       5.00000000       4.53749568      -6.16902242      -0.00000000       6.72808681
H        4.58078674       5.00000000       5.68194013      -0.04625776       0.00000000      -5.03377049
H        5.41921326       5.00000000       4.31805987       6.21528018      -0.00000000      -1.69431632
3
Lattice="10.0 0.0 0.0 0.0 10.0 0.0 0.0 0.0 10.0" Properties=species:S:1:pos:R:3:forces:R:3 energy=-156.75178630875 free_energy=-156.75178630875 stress="0.0025392885978217 -3.6216471861257e-20 -0.00084988072234026 -3.6216471861257e-20 -0.00019647939024162 -1.2002708808122e-19 -0.00084988072234026 -1.2002708808122e-19 0.0031115121223247" pbc="T T T"
O        4.50334812       5.00000000       4.62574597       2.54988423       0.00000000       1.92005983
H        4.50334812       5.00000000       5.65907930       0.09188075       0.00000000      -2.77368400
H        5.49665188       5.00000000       4.34092070      -2.64176499      -0.00000000       0.85362417
3
Lattice="10.0 0.0 0.0 0.0 10.0 0.0 0.0 0.0 10.0" Properties=species:S:1:pos:R:3:forces:R:3 energy=-154.63568043554 free_energy=-154.63568043554 stress="0.0054750097807897 -1.8103454085656e-20 -0.00084902027349907 -1.8103454085656e-20 -0.00020765261325033 -1.5699211945719e-19 -0.00084902027349907 -1.5699211945719e-19 -0.017027190780294" pbc="T T T"
O        4.44028221       5.00000000       4.74119391       5.41694377      -0.00000000     -23.52713397
H        4.44028221       5.00000000       5.49674947      -0.44444072       0.00000000      22.77029232
H        5.55971779       5.00000000       4.50325053      -4.97250305      -0.00000000       0.75684164
3
Lattice="10.0 0.0 0.0 0.0 10.0 0.0 0.0 0.0 10.0" Properties=species:S:1:pos:R:3:forces:R:3 energy=-156.11086101265 free_energy=-156.11086101265 stress="0.00057185477810007 1.8875522242469e-19 -0.00033147005896645 1.8875522242469e-19 -0.0001932093105368 -6.6099755319476e-20 -0.00033147005896645 -6.6099755319476e-20 0.0068207587004828" pbc="T T T"
O        4.52901868       5.00000000       4.53110661       0.56959352       0.00000000       5.25863779
H        4.52901868       5.00000000       5.73110661       0.12285645      -0.00000000      -5.60771756
H        5.47098132       5.00000000       4.26889339      -0.69244997      -0.00000000       0.34907976
3
Lattice="10.0 0.0 0.0 0.0 10.0 0.0 0.0 0.0 10.0" Properties=species:S:1:pos:R:3:forces:R:3 energy=-153.44914422917 free_energy=-153.44914422917 stress="-0.024913509070555 -1.4621154620233e-19 0.0061660805125926 -1.4621154620233e-19 -0.00021666843840725 -1.0512269590096e-19 0.0061660805125926 -1.0512269590096e-19 0.001472477279194" pbc="T T T"
O        4.65881844       5.00000000       4.56140471     -35.93450676      -0.00000000      11.88113108
H        4.65881844       5.00000000       5.59473804      -0.46596347       0.00000000      -2.83828729
H        5.34118156       5.00000000       4.40526196      36.40047024       0.00000000      -9.04284379
3
Lattice="10.0 0.0 0.0 0.0 10.0 0.0 0.0 0.0 10.0" Properties=species:S:1:pos:R:3:forces:R:3 energy=-155.31862021984 free_energy=-155.31862021984 stress="0.0063371632961886 -1.8402123987219e-20 -0.001380259573357 -1.8402123987219e-20 -0.00020234885037426 -2.439057696693e-19 -0.001380259573357 -2.439057696693e-19 -0.010197113876591" pbc="T T T"
O        4.41617308       5.00000000       4.73281397       5.67998144      -0.00000000     -14.15617438
H        4.41617308       5.00000000       5.54392508      -0.17818589       0.00000000      12.97562829
H        5.58382692       5.00000000       4.45607492      -5.50179555       0.00000000       1.18054609
3
Lattice="10.0 0.0 0.0 0.0 10.0 0.0 0.0 0.0 10.0" Properties=species:S:1:pos:R:3:forces:R:3 energy=-154.96341360365 free_energy=-154.96341360365 stress="-0.0050867919566716 -2.1780351881732e-19 0.0018451623409217 -2.1780351881732e-19 -0.00022247288878022 -8.7001519596094e-20 0.0018451623409217 -8.7001519596094e-20 -0.017610107648612" pbc="T T T"
O        4.57994828       5.00000000       4.72868501      -5.20880908      -0.00000000     -20.46957266
H        4.57994828       5.00000000       5.48424057      -0.76072342       0.00000000      22.67098007
H        5.42005172       5.00000000       4.51575943       5.96953251       0.00000000      -2.20140741
3
Lattice="10.0 0.0 0.0 0.0 10.0 0.0 0.0 0.0 10.0" Properties=species:S:1:pos:R:3:forces:R:3 energy=-156.82065924952 free_energy=-156.82065924952 stress="0.0026791398720891 -1.4996564757022e-20 -0.00042547317217653 -1.4996564757022e-20 -0.00020048526121167 2.327408056654e-20 -0.00042547317217653 2.327408056654e-20 -0.0018647830494983" pbc="T T T"
O        4.49635102       5.00000000       4.65413711       2.97160145      -0.00000000      -2.53589660
H        4.49635102       5.00000000       5.57635934      -0.22604033      -0.00000000       2.11560594
H        5.50364898       5.00000000       4.42364066      -2.74556112       0.00000000       0.42029066
3
Lattice="10.0 0.0 0.0 0.0 10.0 0.0 0.0 0.0 10.0" Properties=species:S:1:pos:R:3:forces:R:3 energy=-156.92413211347 free_energy=-156.92413211347 stress="-0.0018456902193899 1.9839796420419e-19 0.00067433785448391 1.9839796420419e-19 -0.00020313490392853 -4.1616193789531e-20 0.00067433785448391 -4.1616193789531e-20 0.00062904260664027" pbc="T T T"
O        4.55050683       5.00000000       4.61396705      -1.69616478       0.00000000       1.57787204
H        4.55050683       5.00000000       5.59174483      -0.27518029      -0.00000000      -0.82355608
H        5.44949317       5.00000000       4.40825517       1.97134507      -0.00000000      -0.75431596
3
Lattice="10.0 0.0 0.0 0.0 10.0 0.0 0.0 0.0 10.0" Properties=species:S:1:pos:R:3:forces:R:3 energy=-156.07284668843 free_energy=-156.07284668843 stress="-0.0098347111665755 -1.0273924260404e-19 0.0027362076910984 -1.0273924260404e-19 -0.00020843908568192 -7.4234486735507e-20 0.0027362076910984 -7.4234486735507e-20 0.0022135479164135" pbc="T T T"
O        4.60687467       5.00000000       4.58297159     -12.17340161       0.00000000       6.32746810
H        4.60687467       5.00000000       5.61630492      -0.25174199      -0.00000000      -2.84091245
H        5.39312533       5.00000000       4.38369508      12.42514360       0.00000000      -3.48655566
3
Lattice="10.0 0.0 0.0 0.0 10.0 0.0 0.0 0.0 10.0" Properties=species:S:1:pos:R:3:forces:R:3 energy=-156.89489365921 free_energy=-156.89489365921 stress="-0.0018108805641585 -1.8428479116917e-19 0.00073426730863825 -1.8428479116917e-19 -0.00020623034611638 1.1342726348208e-19 0.00073426730863825 1.1342726348208e-19 -0.0020986679246188" pbc="T T T"
O        4.55050683       5.00000000       4.64174483      -1.56684798      -0.00000000      -1.24756137
H        4.55050683       5.00000000       5.56396705      -0.36530067      -0.00000000       2.06852724
H        5.44949317       5.00000000       4.43603295       1.93214865       0.00000000      -0.82096587
3
Lattice="10.0 0.0 0.0 0.0 10.0 0.0 0.0 0.0 10.0" Properties=species:S:1:pos:R:3:forces:R:3 energy=-156.5889178599 free_energy=-156.5889178599 stress="0.0027190074336415 -1.4565498606014e-20 -0.00031925615700759 -1.4565498606014e-20 -0.00020383937829076 2.1706460771442e-21 -0.00031925615700759 2.1706460771442e-21 -0.0055312542001781" pbc="T T T"
O        4.49547220       5.00000000       4.67800465       3.12885388       0.00000000      -6.76153064
H        4.49547220       5.00000000       5.54467132      -0.34716726      -0.00000000       6.44724362
H        5.50452780       5.00000000       4.45532868      -2.78168662      -0.00000000       0.31428702
3
Lattice="10.0 0.0 0.0 0.0 10.0 0.0 0.0 0.0 10.0" Properties=species:S:1:pos:R:3:forces:R:3 energy=-156.44209397766 free_energy=-156.44209397766 stress="-0.0052133543916312 -2.140370846738e-19 0.0016648250775774 -2.140370846738e-19 -0.00021354172476128 -1.1867294891834e-19 0.0016648250775774 -1.1867294891834e-19 -0.0059393975493173" pbc="T T T"
O        4.57758473       5.00000000       4.66332647      -5.52658197      -0.00000000      -4.40280240
H        4.57758473       5.00000000       5.52999314      -0.56220715       0.00000000       6.37866042
H        5.42241527       5.00000000       4.47000686       6.08878912       0.00000000      -1.97585802
3
Lattice="10.0 0.0 0.0 0.0 10.0 0.0 0.0 0.0 10.0" Properties=species:S:1:pos:R:3:forces:R:3 energy=-150.13696618625 free_energy=-150.13696618625 stress="-0.025130882913422 -1.338923115396e-19 0.0064425389682904 -1.338923115396e-19 -0.00024368573955181 9.2646281033751e-20 0.0064425389682904 9.2646281033751e-20 -0.027806316858701" pbc="T T T"
O        4.65764834       5.00000000       4.72276909     -34.96911950      -0.00000000     -28.31299321
H        4.65764834       5.00000000       5.42276909      -1.60084241      -0.00000000      37.72699803
H        5.34235166       5.00000000       4.57723091      36.56996191       0.00000000      -9.41400482
3
Lattice="10.0 0.0 0.0 0.0 10.0 0.0 0.0 0.0 10.0" Properties=species:S:1:pos:R:3:forces:R:3 energy=-156.6622837131 free_energy=-156.6622837131 stress="0.00063779930653464 1.3858403715803e-19 -0.00016950196778732 1.3858403715803e-19 -0.00019588869598774 -1.9139325326059e-19 -0.00016950196778732 -1.9139325326059e-19 0.0044870890181663" pbc="T T T"
O        4.52609549       5.00000000       4.57566742       0.77008191       0.00000000       3.91272549
H        4.52609549       5.00000000       5.66455631      -0.01288668       0.00000000      -4.08863954
H        5.47390451       5.00000000       4.33544369      -0.75719523      -0.00000000       0.17591404
3
Lattice="10.0 0.0 0.0 0.0 10.0 0.0 0.0 0.0 10.0" Properties=species:S:1:pos:R:3:forces:R:3 energy=-151.84060844414 free_energy=-151.84060844414 stress="-0.015881147788866 -8.0593588775121e-20 0.0050821704545998 -8.0593588775121e-20 -0.00023717528908249 1.0182984005098e-19 0.0050821704545998 1.0182984005098e-19 -0.027657830758758" pbc="T T T"
O        4.63528499       5.00000000       4.74848354     -20.49553045      -0.00000000     -30.56392788
H        4.63528499       5.00000000       5.44848354      -1.16618152      -0.00000000      37.53655815
H        5.36471501       5.00000000       4.55151646      21.66171197       0.00000000      -6.97263028
3
Lattice="10.0 0.0 0.0 0.0 10.0 0.0 0.0 0.0 10.0" Properties=species:S:1:pos:R:3:forces:R:3 energy=-155.31598936768 free_energy=-155.31598936768 stress="0.0063760792750023 -9.0729813867486e-20 -0.0012328185362698 -9.0729813867486e-20 -0.00020195419233316 -1.7645826997109e-19 -0.0012328185362698 -1.7645826997109e-19 -0.010267955019239" pbc="T T T"
O        4.41409675       5.00000000       4.72374017       5.75619106      -0.00000000     -14.04266006
H        4.41409675       5.00000000       5.53485128      -0.24086707       0.00000000      12.99219632
H        5.58590325       5.00000000       4.46514872      -5.51532399       0.00000000       1.05046374
3
Lattice="10.0 0.0 0.0 0.0 10.0 0.0 0.0 0.0 10.0" Properties=species:S:1:pos:R:3:forces:R:3 energy=-156.13953542604 free_energy=-156.13953542604 stress="-0.0054075714280755 -9.0790488622211e-20 0.0013461438690937 -9.0790488622211e-20 -0.00019951647921726 -1.2936753288786e-19 0.0013461438690937 -1.2936753288786e-19 0.0053972162153635" pbc="T T T"
O        4.57613604       5.00000000       4.51787284      -6.11429508      -0.00000000       6.58505763
H        4.57613604       5.00000000       5.66231729      -0.18457748       0.00000000      -4.99156203
H        5.42386396       5.00000000       4.33768271       6.29887256       0.00000000      -1.59349560
3
Lattice="10.0 0.0 0.0 0.0 10.0 0.0 0.0 0.0 10.0" Properties=species:S:1:pos:R:3:forces:R:3 energy=-153.29860502067 free_energy=-153.29860502067 stress="-0.02497057198213 -1.3684612305278e-19 0.0062611099772926 -1.3684612305278e-19 -0.00022728636599088 1.0085624304631e-19 0.0062611099772926 1.0085624304631e-19 -0.00697493089392" pbc="T T T"
O        4.65822311       5.00000000       4.64208917     -35.52506684      -0.00000000       2.76844380
H        4.65822311       5.00000000       5.50875584      -0.88584766      -0.00000000       6.39679603
H        5.34177689       5.00000000       4.49124416      36.41091449       0.00000000      -9.16523983
3
Lattice="10.0 0.0 0.0 0.0 10.0 0.0 0.0 0.0 10.0" Properties=species:S:1:pos:R:3:forces:R:3 energy=-156.82347703568 free_energy=-156.82347703568 stress="0.0026655002310303 3.6236788462849e-20 -0.00052268672108487 3.6236788462849e-20 -0.00020085552984432 9.5293390703961e-20 -0.00052268672108487 9.5293390703961e-20 -0.0018139215274414" pbc="T T T"
O        4.49819953       5.00000000       4.66193656       2.90864091       0.00000000      -2.61678007
H        4.49819953       5.00000000       5.58415878      -0.16655015      -0.00000000       2.09803367
H        5.50180047       5.00000000       4.41584122      -2.74209077      -0.00000000       0.51874640
3
Lattice="10.0 0.0 0.0 0.0 10.0 0.0 0.0 0.0 10.0" Properties=species:S:1:pos:R:3:forces:R:3 energy=-155.5718951759 free_energy=-155.5718951759 stress="0.0060925739411782 -7.1695341594548e-20 -0.0019035109369935 -7.1695341594548e-20 -0.00018597718166562 -1.3802810533662e-19 -0.0019035109369935 -1.3802810533662e-19 0.0061800336357154" pbc="T T T"
O        4.42074674       5.00000000       4.58419282       5.12191802      -0.00000000       3.30463951
H        4.42074674       5.00000000       5.72863726       0.20441083       0.00000000      -4.94595090
H        5.57925326       5.00000000       4.27136274      -5.32632884       0.00000000       1.64131140
3
Lattice="10.0 0.0 0.0 0.0 10.0 0.0 0.0 0.0 10.0" Properties=species:S:1:pos:R:3:forces:R:3 energy=-154.90041561411 free_energy=-154.90041561411 stress="-0.016252875681064 -1.1879707542987e-19 0.004154086813208 -1.1879707542987e-19 -0.00021011167475379 -1.5278332686603e-19 0.004154086813208 -1.5278332686603e-19 0.0035015330077088" pbc="T T T"
O        4.63240527       5.00000000       4.54267711     -21.72469418      -0.00000000       9.81242793
H        4.63240527       5.00000000       5.63156600      -0.29151537       0.00000000      -4.15496179
H        5.36759473       5.00000000       4.36843400      22.01620956       0.00000000      -5.65746615
3
Lattice="10.0 0.0 0.0 0.0 10.0 0.0 0.0 0.0 10.0" Properties=species:S:1:pos:R:3:forces:R:3 energy=-153.31016584994 free_energy=-153.31016584994 stress="-0.024779351406711 -1.3415992308058e-19 0.006568548617864 -1.3415992308058e-19 -0.00022725385873712 -2.1548664512759e-19 0.006568548617864 -2.1548664512759e-19 -0.0071232454365846" pbc="T T T"
O        4.65943430       5.00000000       4.64738222     -35.43523558      -0.00000000       3.27961325
H        4.65943430       5.00000000       5.51404889      -0.82401226       0.00000000       6.36952815
H        5.34056570       5.00000000       4.48595111      36.25924785       0.00000000      -9.64914140
3
Lattice="10.0 0.0 0.0 0.0 10.0 0.0 0.0 0.0 10.0" Properties=species:S:1:pos:R:3:forces:R:3 energy=-155.18655924338 free_energy=-155.18655924338 stress="-0.016048652002739 -1.8012169072253e-19 0.0045373810080497 -1.8012169072253e-19 -0.00021863127197754 8.4118981339957e-20 0.0045373810080497 8.4118981339957e-20 -0.0030211848476405" pbc="T T T"
O        4.63380106       5.00000000       4.63170261     -21.28771157      -0.00000000       4.21407274
H        4.63380106       5.00000000       5.55392483      -0.52805394      -0.00000000       1.98753133
H        5.36619894       5.00000000       4.44607517      21.81576551       0.00000000      -6.20160406
3
Lattice="10.0 0.0 0.0 0.0 10.0 0.0 0.0 0.0 10.0" Properties=species:S:1:pos:R:3:forces:R:3 energy=-156.11349829351 free_energy=-156.11349829351 stress="0.00059546801856798 6.4027136780274e-20 -8.1933145329459e-05 6.4027136780274e-20 -0.00019119590037935 -5.4434924819853e-20 -8.1933145329459e-05 -5.4434924819853e-20 0.0066824343856821" pbc="T T T"
O        4.52179451       5.00000000       4.50164572       0.75855582       0.00000000       5.48404890
H        4.52179451       5.00000000       5.70164572      -0.05228315      -0.00000000      -5.56682142
H        5.47820549       5.00000000       4.29835428      -0.70627267      -0.00000000       0.08277252
3
Lattice="10.0 0.0 0.0 0.0 10.0 0.0 0.0 0.0 10.0" Properties=species:S:1:pos:R:3:forces:R:3 energy=-155.27869002353 free_energy=-155.27869002353 stress="0.006083364781132 -7.7062724366669e-20 -0.0019259680575184 -7.7062724366669e-20 -0.00018422859215958 2.6401405248623e-20 -0.0019259680575184 2.6401405248623e-20 0.0072056556922695" pbc="T T T"
O        4.42074674       5.00000000       4.55641504       5.10192870      -0.00000000       3.90518004
H        4.42074674       5.00000000       5.75641504       0.21575297      -0.00000000      -5.56582183
H        5.57925326       5.00000000       4.24358496      -5.31768167       0.00000000       1.66064179
3
Lattice="10.0 0.0 0.0 0.0 10.0 0.0 0.0 0.0 10.0" Properties=species:S:1:pos:R:3:forces:R:3 energy=-156.16064302359 free_energy=-156.16064302359 stress="-0.0016816136812766 9.0787401435797e-20 0.00078695376799754 9.0787401435797e-20 -0.00021440767320971 -2.5293730847378e-19 0.00078695376799754 -2.5293730847378e-19 -0.01064486573629" pbc="T T T"
O        4.55483315       5.00000000       4.71465230      -1.36807496      -0.00000000     -11.95641821
H        4.55483315       5.00000000       5.52576341      -0.43628232       0.00000000      12.84447746
H        5.44516685       5.00000000       4.47423659       1.80435728      -0.00000000      -0.88805925
3
Lattice="10.0 0.0 0.0 0.0 10.0 0.0 0.0 0.0 10.0" Properties=species:S:1:pos:R:3:forces:R:3 energy=-156.82657689289 free_energy=-156.82657689289 stress="0.0026296270188723 -4.4644301655636e-20 -0.00071165511397062 -4.4644301655636e-20 -0.00020167798069166 1.5360615082771e-19 -0.00071165511397062 1.5360615082771e-19 -0.0017049722793793" pbc="T T T"
O        4.50225838       5.00000000       4.67744474       2.77878871       0.00000000      -2.77539213
H        4.50225838       5.00000000       5.59966696      -0.05040184      -0.00000000       2.06251648
H        5.49774162       5.00000000       4.40033304      -2.72838687      -0.00000000       0.71287566
3
Lattice="10.0 0.0 0.0 0.0 10.0 0.0 0.0 0.0 10.0" Properties=species:S:1:pos:R:3:forces:R:3 energy=-155.19663242508 free_energy=-155.19663242508 stress="-0.0016381971023491 -1.1219316109172e-19 0.0008439150593658 -1.1219316109172e-19 -0.00021881976410349 -7.0084731443959e-21 0.0008439150593658 -7.0084731443959e-21 -0.01734641457638" pbc="T T T"
O        4.55577898       5.00000000       4.74587959      -1.21521960      -0.00000000     -21.68424212
H        4.55577898       5.00000000       5.50143515      -0.54301767       0.00000000      22.63824706
H        5.44422102       5.00000000       4.49856485       1.75823727       0.00000000      -0.95400494
3
Lattice="10.0 0.0 0.0 0.0 10.0 0.0 0.0 0.0 10.0" Properties=species:S:1:pos:R:3:forces:R:3 energy=-155.61895883348 free_energy=-155.61895883348 stress="-0.009892203596701 -6.980711127024e-20 0.0026317351354851 -6.980711127024e-20 -0.00020440652746105 -1.3268919816474e-19 0.0026317351354851 -1.3268919816474e-19 0.0050809519481036" pbc="T T T"
O        4.60687467       5.00000000       4.52741603     -12.37541973      -0.00000000       8.39926684
H        4.60687467       5.00000000       5.67186048      -0.12347195       0.00000000      -5.04530430
H        5.39312533       5.00000000       4.32813952      12.49889168       0.00000000      -3.35396254
3
Lattice="10.0 0.0 0.0 0.0 10.0 0.0 0.0 0.0 10.0" Properties=species:S:1:pos:R:3:forces:R:3 energy=-156.66117220683 free_energy=-156.66117220683 stress="-0.0052913666196334 -8.8428255930023e-20 0.0015759486471326 -8.8428255930023e-20 -0.00020964842026072 1.3836825756452e-19 0.0015759486471326 1.3836825756452e-19 -0.0022770579792936" pbc="T T T"
O        4.57613604       5.00000000       4.62898395      -5.65658796       0.00000000      -0.20420768
H        4.57613604       5.00000000       5.55120618      -0.50441932      -0.00000000       2.06856127
H        5.42386396       5.00000000       4.44879382       6.16100728       0.00000000      -1.86435358
3
Lattice="10.0 0.0 0.0 0.0 10.0 0.0 0.0 0.0 10.0" Properties=species:S:1:pos:R:3:forces:R:3 energy=-155.10758333082 free_energy=-155.10758333082 stress="-0.015961886845334 -1.271716916864e-19 0.0045742424360419 -1.271716916864e-19 -0.00021293829020719 -8.2744203250992e-20 0.0045742424360419 -8.2744203250992e-20 0.0017065284201185" pbc="T T T"
O        4.63528499       5.00000000       4.58181688     -21.51588218      -0.00000000       9.15589129
H        4.63528499       5.00000000       5.61515021      -0.27318738       0.00000000      -2.87805001
H        5.36471501       5.00000000       4.38484979      21.78906956       0.00000000      -6.27784128
3
Lattice="10.0 0.0 0.0 0.0 10.0 0.0 0.0 0.0 10.0" Properties=species:S:1:pos:R:3:forces:R:3 energy=-153.54697516556 free_energy=-153.54697516556 stress="-0.025078592983149 -8.9515422439883e-20 0.0059278785760915 -8.9515422439883e-20 -0.00021947298356906 5.7847479561746e-20 0.0059278785760915 5.7847479561746e-20 -0.00047351556083684" pbc="T T T"
O        4.65764834       5.00000000       4.58388020     -35.88842043      -0.00000000       9.52519894
H        4.65764834       5.00000000       5.56165798      -0.62640436      -0.00000000      -0.86141511
H        5.34235166       5.00000000       4.43834202      36.51482479       0.00000000      -8.66378384
3
Lattice="10.0 0.0 0.0 0.0 10.0 0.0 0.0 0.0 10.0" Properties=species:S:1:pos:R:3:forces:R:3 energy=-155.86937698776 free_energy=-155.86937698776 stress="0.0052252867454987 -6.0262304177185e-21 -0.0014313038793657 -6.0262304177185e-21 -0.00018687161236634 -1.389855119158e-19 -0.0014313038793657 -1.389855119158e-19 0.0060091740362871" pbc="T T T"
O        4.44424249       5.00000000       4.56405638       4.66134638       0.00000000       3.65498148
H        4.44424249       5.00000000       5.70850083       0.11135963       0.00000000      -4.94076795
H        5.55575751       5.00000000       4.29149917      -4.77270601      -0.00000000       1.28578646
