3
Lattice="20.0 0.0 0.0 0.0 20.0 0.0 0.0 0.0 20.0" Properties=species:S:1:pos:R:3:forces:R:3 energy=-155.09174903304 free_energy=-155.09174903304 stress="-0.0015466911610339 0.00040105545957282 -7.6083073094545e-20 0.00040105545957282 -0.0013614327062158 -1.6215931021389e-20 -7.6083073094545e-20 -1.6215931021389e-20 -3.1332934017139e-08" pbc="T T T"
O        0.00000000       0.00000000       0.00000000     -10.42533122     -13.10642319      -0.00000000
H        0.80000000       0.00000000       0.00000000      14.54168933      -0.86742936       0.00000000
H       -0.17996084       0.77949605       0.00000000      -4.11635811      13.97385255       0.00000000
3
Lattice="20.0 0.0 0.0 0.0 20.0 0.0 0.0 0.0 20.0" Properties=species:S:1:pos:R:3:forces:R:3 energy=185.96726902495 free_energy=185.96726902495 stress="-0.035848986453708 -0.020730190468961 9.6490483648795e-22 -0.020730190468961 -0.012895128221787 2.9065058496249e-21 9.6490483648795e-22 2.9065058496249e-21 -1.371905912399e-07" pbc="T T T"
O        0.00000000       0.00000000       0.00000000     -25.74336616      -0.31379780       0.00000000
H        0.80000000       0.00000000       0.00000000   -6246.43651857   -3901.22801856       0.00000000
H        0.84244231       0.02644081       0.00000000    6272.17988473    3901.54181636      -0.00000000
3
Lattice="20.0 0.0 0.0 0.0 20.0 0.0 0.0 0.0 20.0" Properties=species:S:1:pos:R:3:forces:R:3 energy=30.335899444823 free_energy=30.335899444823 stress="-0.029819396552471 -0.00015631837916931 1.3312302498281e-20 -0.00015631837916931 -1.0215620750325e-06 4.7905324965694e-21 1.3312302498281e-20 4.7905324965694e-21 -1.3886102004206e-07" pbc="T T T"
O        0.00000000       0.00000000       0.00000000     -21.95648140      -0.00326062      -0.00000000
H        0.80000000       0.00000000       0.00000000   -2556.36519247     -14.55602908      -0.00000000
H        0.88571415       0.00048502       0.00000000    2578.32167387      14.55928970       0.00000000
3
Lattice="20.0 0.0 0.0 0.0 20.0 0.0 0.0 0.0 20.0" Properties=species:S:1:pos:R:3:forces:R:3 energy=-44.044556286087 free_energy=-44.044556286087 stress="-0.02069523929216 -1.2952966651274e-06 3.9611421770428e-20 -1.2952966651274e-06 -1.4020357731999e-07 2.7257060100815e-21 3.9611421770428e-20 2.7257060100815e-21 -1.4011432150748e-07" pbc="T T T"
O        0.00000000       0.00000000       0.00000000     -19.22814117      -0.00001658      -0.00000000
H        0.80000000       0.00000000       0.00000000   -1148.90234288      -0.08044025      -0.00000000
H        0.92857143       0.00000887       0.00000000    1168.13048404       0.08045683       0.00000000
3
Lattice="20.0 0.0 0.0 0.0 20.0 0.0 0.0 0.0 20.0" Properties=species:S:1:pos:R:3:forces:R:3 energy=-81.656684617178 free_energy=-81.656684617178 stress="-0.015806492326577 -1.3321503156307e-08 2.9292139333054e-21 -1.3321503156307e-08 -1.4122667453497e-07 1.7111107660946e-20 2.9292139333054e-21 1.7111107660946e-20 -1.4122666196e-07" pbc="T T T"
O        0.00000000       0.00000000       0.00000000     -17.28602279      -0.00000032      -0.00000000
H        0.80000000       0.00000000       0.00000000    -639.73426572      -0.00062049      -0.00000000
H        0.97142857       0.00000016       0.00000000     657.02028851       0.00062081      -0.00000000
3
Lattice="20.0 0.0 0.0 0.0 20.0 0.0 0.0 0.0 20.0" Properties=species:S:1:pos:R:3:forces:R:3 energy=-103.99269307776 free_energy=-103.99269307776 stress="-0.012602184414686 -1.527838831492e-10 1.8731887637853e-20 -1.527838831492e-10 -1.4234040131171e-07 -1.8101817733042e-21 1.8731887637853e-20 -1.8101817733042e-21 -1.4234040130946e-07" pbc="T T T"
O        0.00000000       0.00000000       0.00000000     -15.91133178       0.00000010      -0.00000000
H        0.80000000       0.00000000       0.00000000    -395.20982442      -0.00000621       0.00000000
H        1.01428571       0.00000000       0.00000000     411.12115620       0.00000611       0.00000000
3
Lattice="20.0 0.0 0.0 0.0 20.0 0.0 0.0 0.0 20.0" Properties=species:S:1:pos:R:3:forces:R:3 energy=-118.39144135906 free_energy=-118.39144135906 stress="-0.010257452601495 1.2313999222463e-10 -6.2525035168274e-21 1.2313999222463e-10 -1.4352823343453e-07 3.5213646265965e-21 -6.2525035168274e-21 3.5213646265965e-21 -1.4352823343454e-07" pbc="T T T"
O        0.00000000       0.00000000       0.00000000     -14.93895881       0.00000180      -0.00000000
H        0.80000000       0.00000000       0.00000000    -257.74019661       0.00000034      -0.00000000
H        1.05714286       0.00000000       0.00000000     272.67915542      -0.00000213      -0.00000000
3
Lattice="20.0 0.0 0.0 0.0 20.0 0.0 0.0 0.0 20.0" Properties=species:S:1:pos:R:3:forces:R:3 energy=-128.10495472592 free_energy=-128.10495472592 stress="-0.0084331220463444 -1.4755991626035e-10 1.5126515038755e-20 -1.4755991626035e-10 -1.4482695403394e-07 2.1102104042353e-21 1.5126515038755e-20 2.1102104042353e-21 -1.4482695403394e-07" pbc="T T T"
O        0.00000000       0.00000000       0.00000000     -14.24630515      -0.00000224      -0.00000000
H        0.80000000       0.00000000       0.00000000    -172.67733381       0.00000035      -0.00000000
H        1.10000000       0.00000000       0.00000000     186.92363897       0.00000189      -0.00000000
3
Lattice="20.0 0.0 0.0 0.0 20.0 0.0 0.0 0.0 20.0" Properties=species:S:1:pos:R:3:forces:R:3 energy=247.33171839992 free_energy=247.33171839992 stress="-0.05616344370269 -5.0415917947936e-13 3.8059604820868e-21 -5.0415917947936e-13 -1.3725719372466e-07 6.4373036013548e-21 3.8059604820868e-21 6.4373036013548e-21 -1.3725719372466e-07" pbc="T T T"
O        0.00000000       0.00000000       0.00000000     -25.76029541      -0.00000001      -0.00000000
H        0.84285714       0.00000000       0.00000000   10003.18500577       0.00000000      -0.00000000
H        0.80000000       0.00000000       0.00000000   -9977.42471036       0.00000001       0.00000000
